%chk=knarr_saddle.chk
# B3LYP/6-31G(d) Opt=(TS,CalcAll,MaxStep=5) Freq SCRF=(IEFPCM,Solvent=Acetone) Temperature=303.15

Converted from XYZ file

1 1
C   2.559761   1.142212   -1.260310
C   1.325673   0.289026   -1.290865
C   1.280590   -0.807652   -0.460560
N   0.305717   0.696311   -2.070389
C   0.486219   1.757923   -3.084837
C   -0.293328   1.248876   -4.287420
C   -1.472617   0.545491   -3.634151
C   -0.860894   -0.150819   -2.410519
C   -1.899900   -0.408154   -1.304210
N   -2.051092   0.651543   -0.288592
H   -1.149323   0.679085   0.318480
C   -2.420342   2.017556   -0.745114
C   -2.757965   2.736760   0.557131
C   -3.262821   1.627735   1.510768
C   -3.090530   0.320184   0.738512
H   3.223999   0.796824   -0.473535
H   2.308224   2.187427   -1.072835
H   3.103647   1.092553   -2.203948
H   2.229750   -1.231046   -0.177329
H   0.442132   -1.488060   -0.448794
H   0.086118   2.705962   -2.717571
H   1.537236   1.903806   -3.309228
H   -0.587955   2.051551   -4.960247
H   0.312936   0.537533   -4.851625
H   -2.215084   1.281584   -3.319497
H   -1.974298   -0.169161   -4.284279
H   -0.484922   -1.137013   -2.705216
H   -1.667758   -1.315915   -0.748396
H   -2.869833   -0.562243   -1.786462
H   -3.289345   1.929872   -1.402163
H   -1.596116   2.461591   -1.296231
H   -3.495464   3.516712   0.387484
H   -1.863874   3.207789   0.962286
H   -2.663460   1.608094   2.417602
H   -4.301575   1.769235   1.797086
H   -2.714731   -0.500038   1.344514
H   -3.998726   0.011278   0.218208
C   0.947910   0.089961   1.398742
O   -0.279959   0.350430   1.449736
C   1.518001   -1.034528   2.198455
C   2.792534   -0.887515   2.728414
C   3.379715   -1.923245   3.436568
C   2.674731   -3.103141   3.567006
N   3.333967   -4.248629   4.232644
O   4.440857   -4.063765   4.688347
O   2.724860   -5.296777   4.261273
C   1.390503   -3.266622   3.075690
C   0.807490   -2.214731   2.394116
H   1.668781   0.903213   1.237126
H   3.328012   0.044996   2.590940
H   4.364751   -1.832325   3.867159
H   0.881488   -4.207290   3.222473
H   -0.193691   -2.314442   1.993565

