%chk=product.chk
#p opt freq B3LYP/6-31G(d) scrf=(iefpcm,solvent=acetone) Temperature=303.15

Converted from XYZ file

1 1
C   3.135311   -1.628222   -0.722464
C   2.063200   -2.664481   -0.818685
C   2.151615   -3.820966   0.115957
N   1.173819   -2.567395   -1.746002
C   1.258221   -1.555384   -2.831828
C   0.552475   -2.233109   -3.993873
C   -0.578268   -2.982740   -3.304501
C   0.037083   -3.516701   -2.006537
C   -0.978812   -3.675268   -0.862928
N   -1.161793   -2.525669   0.004082
H   0.209120   -2.698926   1.242795
C   -1.679521   -1.297045   -0.608774
C   -2.074341   -0.438691   0.593710
C   -2.432248   -1.463675   1.693895
C   -2.171627   -2.820506   1.043926
H   3.689265   -1.733911   0.204637
H   2.729614   -0.619315   -0.787288
H   3.841242   -1.761014   -1.547187
H   3.165719   -4.213290   -0.023495
H   1.450037   -4.617018   -0.123032
H   0.744668   -0.647673   -2.512075
H   2.297677   -1.316799   -3.033275
H   0.205345   -1.512488   -4.730420
H   1.234492   -2.924867   -4.491155
H   -1.399924   -2.304057   -3.076468
H   -0.980570   -3.799300   -3.900355
H   0.492198   -4.490229   -2.200595
H   -0.694879   -4.509989   -0.219913
H   -1.925243   -3.966187   -1.345585
H   -2.559676   -1.523087   -1.229234
H   -0.933984   -0.816017   -1.240630
H   -2.900095   0.226283   0.350021
H   -1.236115   0.183389   0.905964
H   -1.798640   -1.331697   2.569207
H   -3.465782   -1.377352   2.021438
H   -1.797971   -3.575444   1.734094
H   -3.082338   -3.207869   0.566720
C   2.004139   -3.451315   1.617902
O   0.671630   -3.195258   1.952677
C   2.518294   -4.603427   2.451153
C   3.839413   -4.610991   2.882027
C   4.337891   -5.682148   3.605205
C   3.487569   -6.734644   3.883031
N   4.007980   -7.883096   4.656751
O   5.161972   -7.828278   5.023387
O   3.245304   -8.800931   4.868659
C   2.167191   -6.751583   3.474812
C   1.683346   -5.672029   2.754684
H   2.633825   -2.577824   1.828325
H   4.485427   -3.766602   2.669590
H   5.357171   -5.707695   3.960564
H   1.541858   -7.594645   3.727928
H   0.646938   -5.646298   2.446157

