%chk=reactant.chk
#p opt freq B3LYP/6-31G(d) scrf=(iefpcm,solvent=acetone) Temperature=303.15

Converted from XYZ file

1 1
C   3.135201   -3.039194   -0.692195
C   1.852097   -3.686817   -1.132857
C   1.585966   -4.964837   -0.831829
N   0.966471   -2.852640   -1.819881
C   1.468484   -1.772297   -2.695961
C   0.640151   -1.907891   -3.969002
C   -0.696191   -2.418457   -3.443513
C   -0.267977   -3.412708   -2.361910
C   -1.320628   -3.676068   -1.273012
N   -1.195206   -2.758777   -0.108057
H   -0.209758   -2.761422   0.190017
C   -1.580952   -1.331267   -0.343622
C   -1.732104   -0.764724   1.058782
C   -2.280285   -1.935373   1.898120
C   -2.023114   -3.198618   1.067846
H   3.613366   -3.646588   0.073623
H   2.957914   -2.036340   -0.298965
H   3.837505   -2.947550   -1.521734
H   2.305434   -5.533754   -0.262493
H   0.715257   -5.497463   -1.183766
H   1.316713   -0.794761   -2.227294
H   2.531886   -1.883645   -2.888418
H   0.561210   -0.973972   -4.521557
H   1.090735   -2.653990   -4.626297
H   -1.275729   -1.596569   -3.017778
H   -1.312163   -2.896757   -4.203226
H   -0.066320   -4.380764   -2.838923
H   -1.229093   -4.681836   -0.868680
H   -2.328602   -3.562152   -1.674566
H   -2.524855   -1.342108   -0.890971
H   -0.814386   -0.849801   -0.944025
H   -2.392551   0.099143   1.061988
H   -0.760452   -0.451927   1.434746
H   -1.782047   -1.991302   2.862523
H   -3.346742   -1.826593   2.083424
H   -1.471732   -3.975190   1.591538
H   -2.942493   -3.623399   0.667789
C   1.920834   -2.502589   2.435289
O   0.900173   -2.427924   1.781951
C   2.508040   -3.759045   2.926145
C   3.690331   -3.704389   3.657373
C   4.271923   -4.872210   4.125005
C   3.642084   -6.066995   3.838826
N   4.256726   -7.325987   4.330372
O   5.275893   -7.227883   4.975554
O   3.692792   -8.360185   4.047999
C   2.464000   -6.152390   3.114070
C   1.894292   -4.981582   2.655915
H   2.475379   -1.584773   2.695883
H   4.156364   -2.748078   3.861874
H   5.187541   -4.870159   4.696845
H   2.024458   -7.120529   2.925867
H   0.983378   -5.000350   2.074170

