%chk=knarr_saddle.chk
# B3LYP/6-31G(d) Opt=(TS,CalcAll,MaxStep=5) Freq SCRF=(IEFPCM,Solvent=Acetone) Temperature=303.15

Converted from XYZ file

1 1
C   2.391165   0.919134   -0.257600
C   1.853090   -0.393334   0.189283
C   1.382211   -0.471814   1.533998
N   1.605543   -1.339945   -0.685531
C   1.250983   -2.726667   -0.311928
C   1.794501   -3.539127   -1.477763
C   1.502340   -2.639715   -2.672746
C   1.785429   -1.223256   -2.155792
C   0.953437   -0.116916   -2.819900
N   -0.417590   0.090474   -2.301691
H   -0.449888   0.211607   -1.140879
C   -1.439710   -0.934724   -2.672209
C   -2.791896   -0.201010   -2.639333
C   -2.453570   1.286544   -2.423447
C   -0.981086   1.392009   -2.777899
H   2.961858   1.383049   0.543231
H   3.009543   0.857185   -1.148716
H   1.520991   1.558753   -0.450773
H   1.874835   0.232555   2.197704
H   1.293239   -1.454378   1.984894
H   1.715011   -2.976252   0.637583
H   0.167120   -2.832765   -0.215260
H   2.869137   -3.684401   -1.355362
H   1.326034   -4.517330   -1.555534
H   2.112202   -2.865985   -3.545351
H   0.457899   -2.741196   -2.967159
H   2.834582   -0.982406   -2.346050
H   0.898478   -0.339125   -3.890361
H   1.465047   0.839300   -2.731262
H   -1.211655   -1.308571   -3.672147
H   -1.386895   -1.764165   -1.967373
H   -3.427890   -0.579188   -1.842493
H   -3.317727   -0.355986   -3.579812
H   -2.596077   1.562319   -1.380116
H   -3.057476   1.945206   -3.043014
H   -0.816278   1.471514   -3.856273
H   -0.460180   2.201515   -2.267157
C   -0.384152   0.026183   1.252128
O   -0.604998   0.674703   0.124995
C   -0.673772   0.791625   2.518444
C   -0.796084   0.112069   3.727341
C   -0.975831   0.803262   4.911975
C   -1.035657   2.183936   4.863153
N   -1.191956   2.936809   6.128250
O   -1.257833   2.295523   7.155021
O   -1.236404   4.145252   6.054272
C   -0.951121   2.886097   3.676539
C   -0.772369   2.179067   2.496304
H   -0.798700   -0.993009   1.295258
H   -0.742807   -0.970666   3.749101
H   -1.063809   0.300383   5.863142
H   -1.020868   3.963621   3.696025
H   -0.710397   2.702239   1.552288

