%chk=product.chk
#p opt freq B3LYP/6-31G(d) scrf=(iefpcm,solvent=acetone) Temperature=303.15

Converted from XYZ file

1 1
C   4.752703   1.019816   2.230463
C   4.048090   -0.128644   2.852790
C   3.540688   0.063898   4.243149
N   3.790221   -1.209590   2.200995
C   3.290595   -2.467498   2.808828
C   3.759006   -3.522392   1.819041
C   3.548507   -2.833635   0.475187
C   3.943279   -1.372258   0.721258
C   3.124210   -0.337914   -0.074345
N   1.885601   0.102610   0.551823
H   1.800821   0.910834   2.275980
C   0.784660   -0.874356   0.540146
C   -0.447023   -0.038299   0.887125
C   -0.108495   1.379105   0.373385
C   1.314134   1.257756   -0.173510
H   5.511381   1.366482   2.933908
H   5.221275   0.795652   1.278865
H   4.037841   1.839431   2.118833
H   4.037195   0.920313   4.695508
H   3.699864   -0.804350   4.881754
H   3.701203   -2.584385   3.807373
H   2.202794   -2.433122   2.871819
H   4.814583   -3.743652   1.984759
H   3.198649   -4.448954   1.918572
H   4.144751   -3.265438   -0.325519
H   2.502600   -2.895495   0.175593
H   5.000441   -1.238310   0.484509
H   2.931851   -0.782752   -1.062678
H   3.727011   0.551943   -0.253002
H   0.689138   -1.321532   -0.460646
H   0.956824   -1.681860   1.251995
H   -0.606159   -0.023040   1.965374
H   -1.343828   -0.451371   0.431237
H   -0.149355   2.100703   1.187146
H   -0.795386   1.714869   -0.399804
H   1.300748   1.048900   -1.251859
H   1.924295   2.146689   -0.008489
C   2.011778   0.371188   4.143822
O   1.774908   1.345858   3.157357
C   1.513720   0.852353   5.483125
C   1.154392   -0.069472   6.459966
C   0.730035   0.357650   7.707063
C   0.674848   1.717315   7.947809
N   0.219818   2.186495   9.275293
O   -0.076812   1.340748   10.091343
O   0.176051   3.383785   9.455827
C   1.020324   2.655943   6.994961
C   1.443650   2.213937   5.752217
H   1.489589   -0.559674   3.890563
H   1.186565   -1.132016   6.245299
H   0.437509   -0.336657   8.480637
H   0.951867   3.707189   7.231925
H   1.701290   2.927413   4.982519

