%chk=reactant.chk
#p opt freq B3LYP/6-31G(d) scrf=(iefpcm,solvent=acetone) Temperature=303.15

Converted from XYZ file

1 1
C   4.173986   0.728333   3.216201
C   3.853693   -0.723791   3.433028
C   3.847114   -1.213678   4.680770
N   3.479080   -1.465929   2.306146
C   3.439433   -2.936564   2.419066
C   4.119714   -3.447600   1.155374
C   3.773406   -2.373914   0.137803
C   3.883737   -1.077553   0.945004
C   3.063091   0.078158   0.357403
N   1.621205   0.038493   0.736781
H   1.572295   -0.261425   1.725263
C   0.726353   -0.898730   -0.050407
C   -0.564523   -0.117887   -0.326817
C   -0.507844   1.079641   0.623994
C   0.972583   1.393633   0.669483
H   4.535851   1.162821   4.143858
H   4.938207   0.883827   2.453635
H   3.276646   1.283225   2.923298
H   4.138120   -0.570608   5.497932
H   3.588583   -2.231972   4.927832
H   3.970777   -3.262131   3.310128
H   2.405725   -3.286480   2.496802
H   5.199383   -3.488213   1.308725
H   3.782602   -4.440614   0.865969
H   4.428677   -2.358037   -0.731983
H   2.752442   -2.524866   -0.215860
H   4.928591   -0.745751   0.925773
H   3.126237   0.074399   -0.731641
H   3.438365   1.035852   0.708568
H   1.244735   -1.184600   -0.961221
H   0.566880   -1.785621   0.558808
H   -1.444684   -0.736787   -0.172073
H   -0.576823   0.223262   -1.361783
H   -0.859836   0.810717   1.619389
H   -1.089202   1.926799   0.267690
H   1.315260   1.873347   -0.248434
H   1.298204   1.972381   1.530377
C   0.953111   -0.270855   4.543085
O   0.792099   0.022104   3.372743
C   1.096669   0.725324   5.618234
C   1.297564   0.288018   6.923258
C   1.439745   1.207587   7.948973
C   1.372164   2.550206   7.629938
N   1.528575   3.544812   8.720139
O   1.694095   3.115255   9.839824
O   1.483091   4.714979   8.409709
C   1.164931   3.014934   6.341958
C   1.026455   2.086583   5.328677
H   0.970779   -1.325108   4.856401
H   1.347228   -0.772940   7.135906
H   1.597426   0.906595   8.973749
H   1.111438   4.077824   6.159979
H   0.850819   2.404756   4.309835

