%chk=knarr_saddle.chk
# B3LYP/6-31G(d) Opt=(TS,CalcAll,MaxStep=5) Freq SCRF=(IEFPCM,Solvent=Acetone) Temperature=303.15

Converted from XYZ file

1 1
C   -1.893130   -2.100852   -0.432889
C   -0.529293   -1.546362   -0.735892
C   0.425223   -1.709048   0.355271
N   -0.368313   -0.880638   -1.853104
C   -1.411271   -0.847604   -2.921515
C   -0.639814   -0.977719   -4.248859
C   0.837550   -0.824560   -3.867993
C   0.792829   -0.164612   -2.491777
C   2.156277   -0.087982   -1.836284
N   2.255212   0.848731   -0.720813
H   1.343526   0.689657   0.262265
C   3.561204   0.788632   -0.013644
C   3.782370   2.190973   0.581347
C   2.542507   3.002388   0.173645
C   2.028289   2.273789   -1.059301
H   -2.603828   -1.274442   -0.379684
H   -2.247606   -2.808286   -1.182532
H   -1.882226   -2.605931   0.527472
H   1.477323   -1.683419   0.061508
H   0.234832   -2.649109   0.874359
H   -1.958639   0.096039   -2.869133
H   -2.116717   -1.653734   -2.778625
H   -0.949591   -0.203415   -4.948675
H   -0.832898   -1.937299   -4.722632
H   1.396335   -0.219455   -4.581017
H   1.333909   -1.794176   -3.790558
H   0.430758   0.858863   -2.637942
H   2.507402   -1.072222   -1.528453
H   2.836928   0.245457   -2.629555
H   4.346032   0.520849   -0.723471
H   3.510571   0.005760   0.745364
H   4.687658   2.633050   0.167987
H   3.902807   2.155553   1.661476
H   2.770615   4.046240   -0.031220
H   1.784051   2.966232   0.953985
H   0.969516   2.455560   -1.245327
H   2.602360   2.532258   -1.955216
C   0.214747   -0.380095   1.640242
O   0.585783   0.789127   1.094813
C   -1.141448   -0.276813   2.349419
C   -1.457933   -1.145600   3.396372
C   -2.657079   -1.037973   4.088049
C   -3.533050   -0.028774   3.734273
N   -4.780389   0.149039   4.516688
O   -5.510984   1.060396   4.196137
O   -4.976736   -0.619949   5.433587
C   -3.259956   0.855359   2.706244
C   -2.056313   0.732005   2.024560
H   0.943116   -0.832566   2.318648
H   -0.746313   -1.904840   3.700061
H   -2.917732   -1.705018   4.899257
H   -3.981441   1.627387   2.468960
H   -1.807026   1.449149   1.254125

