%chk=product.chk
#p opt freq B3LYP/6-31G(d) scrf=(iefpcm,solvent=acetone) Temperature=303.15

Converted from XYZ file

1 1
C   -1.658266   -2.379808   6.232779
C   -0.522182   -1.466774   5.893064
C   0.480907   -1.193557   6.966831
N   -0.494331   -0.931938   4.718863
C   -1.613663   -1.149553   3.758085
C   -1.387601   -0.122609   2.662950
C   0.126036   -0.005792   2.633081
C   0.518093   0.010122   4.105183
C   1.997412   -0.319907   4.332531
N   2.624156   0.559309   5.307667
H   1.317849   1.089205   6.534794
C   3.948620   0.095235   5.743084
C   4.534519   1.304652   6.473836
C   3.807952   2.521110   5.851826
C   2.888439   1.913338   4.792769
H   -2.579061   -1.799065   6.340678
H   -1.821485   -3.118290   5.447148
H   -1.473559   -2.888443   7.172967
H   1.491030   -1.096399   6.582824
H   0.459978   -2.026651   7.667456
H   -2.562780   -1.035128   4.275538
H   -1.540761   -2.170057   3.377793
H   -1.840398   0.830684   2.939448
H   -1.820866   -0.443579   1.719033
H   0.487835   0.889868   2.131305
H   0.572693   -0.872926   2.138362
H   0.288512   0.985505   4.534971
H   2.116512   -1.361488   4.639265
H   2.511260   -0.232563   3.364514
H   4.560902   -0.168418   4.868848
H   3.858656   -0.794575   6.369230
H   5.613898   1.354688   6.349180
H   4.332718   1.241832   7.542408
H   4.494503   3.240699   5.411530
H   3.222547   3.047264   6.604846
H   1.962129   2.474089   4.656874
H   3.395675   1.848348   3.819040
C   0.148978   0.122598   7.734512
O   0.426344   1.231160   6.927597
C   -1.298172   0.146963   8.165804
C   -1.707802   -0.647739   9.232559
C   -3.044398   -0.720121   9.585495
C   -3.956451   0.018601   8.853302
N   -5.390536   -0.064593   9.208940
O   -6.168705   0.563326   8.523589
O   -5.687942   -0.761488   10.154135
C   -3.576927   0.838179   7.808154
C   -2.233498   0.900906   7.466206
H   0.783650   0.113662   8.628458
H   -0.976846   -1.213348   9.799696
H   -3.386005   -1.326678   10.411380
H   -4.325203   1.417729   7.287305
H   -1.904360   1.552421   6.668365

