%chk=reactant.chk
#p opt freq B3LYP/6-31G(d) scrf=(iefpcm,solvent=acetone) Temperature=303.15

Converted from XYZ file

1 1
C   -1.539635   -1.572343   5.379820
C   -0.220062   -1.554117   4.656429
C   0.709459   -2.478969   4.904971
N   -0.096498   -0.461827   3.752619
C   -0.962126   -0.596251   2.558915
C   -0.128397   -1.421469   1.557153
C   1.340721   -1.106089   1.922835
C   1.189940   -0.148839   3.118196
C   2.387036   -0.026408   4.041586
N   2.049562   0.736947   5.275574
H   1.322075   0.218193   5.787481
C   3.218006   0.887129   6.230302
C   3.221218   2.356433   6.658913
C   1.816134   2.855656   6.316655
C   1.506349   2.117586   5.028617
H   -1.773711   -0.585096   5.779617
H   -2.354657   -1.857258   4.713634
H   -1.520598   -2.300783   6.188972
H   1.624087   -2.577126   4.342577
H   0.526970   -3.226309   5.664471
H   -1.162783   0.402983   2.168031
H   -1.913936   -1.053676   2.810005
H   -0.367875   -1.161994   0.527618
H   -0.330392   -2.484014   1.683792
H   1.885186   -0.631868   1.107399
H   1.884483   -2.010383   2.195857
H   1.027817   0.848332   2.692573
H   2.787972   -0.982405   4.363470
H   3.181149   0.521563   3.531948
H   4.125367   0.587920   5.711692
H   3.039301   0.204446   7.056821
H   3.968143   2.912289   6.091846
H   3.461939   2.461638   7.713841
H   1.771568   3.934196   6.182684
H   1.102235   2.571483   7.089721
H   0.453348   2.033290   4.773725
H   2.058193   2.536931   4.185929
C   -0.127413   -0.617187   8.278953
O   0.366014   0.118977   7.448022
C   -1.334247   -0.291515   9.053110
C   -1.768346   -1.178087   10.033756
C   -2.897412   -0.884998   10.781937
C   -3.563032   0.294649   10.513747
N   -4.774263   0.619176   11.309019
O   -5.344559   1.654775   11.046196
O   -5.103082   -0.174381   12.161783
C   -3.158147   1.192668   9.539371
C   -2.028764   0.892260   8.805128
H   0.329169   -1.599165   8.491232
H   -1.221467   -2.094948   10.217961
H   -3.262591   -1.543376   11.555599
H   -3.725393   2.096885   9.378362
H   -1.674049   1.564479   8.035644

