%chk=knarr_saddle.chk
# B3LYP/6-31G(d) Opt=(TS,CalcAll,MaxStep=5) Freq SCRF=(IEFPCM,Solvent=Acetone) Temperature=303.15

Converted from XYZ file

1 1
C   -2.458331   1.581465   1.103643
C   -1.672100   0.314029   1.224194
C   -0.548724   0.283056   2.106932
N   -1.887330   -0.662835   0.379354
C   -1.285919   -2.010728   0.493186
C   -2.315162   -2.901030   -0.186604
C   -2.816264   -2.035136   -1.337037
C   -2.831652   -0.610944   -0.765086
C   -2.507617   0.488796   -1.779180
N   -1.071515   0.725112   -2.043446
H   -0.402833   0.702125   -1.098282
C   -0.416450   -0.270547   -2.940121
C   0.823353   0.450096   -3.444132
C   0.409073   1.931220   -3.536207
C   -0.883889   2.046022   -2.723666
H   -2.486270   2.101410   2.056986
H   -1.970778   2.247917   0.385189
H   -3.479761   1.408656   0.769537
H   -0.202076   -0.692900   2.420159
H   -0.630730   0.975407   2.940347
H   -1.137587   -2.256037   1.540537
H   -0.316779   -2.014977   -0.008908
H   -3.128114   -3.122184   0.506442
H   -1.889810   -3.844897   -0.519574
H   -2.140376   -2.103870   -2.188210
H   -3.806720   -2.318783   -1.687356
H   -3.829339   -0.397818   -0.374081
H   -2.987087   0.233424   -2.728543
H   -2.930342   1.437742   -1.458792
H   -0.183280   -1.166496   -2.370703
H   -1.113592   -0.513492   -3.745000
H   1.145777   0.045180   -4.400411
H   1.631154   0.325336   -2.726763
H   1.185517   2.579782   -3.141840
H   0.220888   2.232565   -4.563410
H   -1.749210   2.211365   -3.367058
H   -0.866445   2.825890   -1.963602
C   0.791171   0.875235   1.008791
O   0.637591   0.432000   -0.222478
C   2.039130   0.414928   1.740982
C   2.456788   1.100847   2.878790
C   3.541958   0.661581   3.618076
C   4.209669   -0.471996   3.193367
N   5.345335   -0.973608   3.999678
O   5.636681   -0.351510   4.998623
O   5.902703   -1.978992   3.613125
C   3.851797   -1.149937   2.043100
C   2.761880   -0.696120   1.312905
H   0.647189   1.956141   1.149417
H   1.930457   1.994850   3.192115
H   3.873702   1.175226   4.507573
H   4.424418   -2.014512   1.740046
H   2.479850   -1.198051   0.397392

