%chk=product.chk
#p opt freq B3LYP/6-31G(d) scrf=(iefpcm,solvent=acetone) Temperature=303.15

Converted from XYZ file

1 1
C   0.744686   2.198336   2.335097
C   1.423425   0.872246   2.280094
C   2.644938   0.702815   3.108921
N   1.044505   -0.042746   1.457986
C   1.568389   -1.432725   1.426457
C   0.435652   -2.203796   0.770558
C   -0.078724   -1.229902   -0.283573
C   0.039126   0.154451   0.366483
C   0.438438   1.284632   -0.597497
N   1.869441   1.417634   -0.837664
H   3.216689   1.066999   0.455235
C   2.437977   0.451668   -1.799427
C   3.771344   1.074526   -2.231780
C   3.640624   2.573058   -1.882395
C   2.192140   2.727178   -1.436484
H   0.775332   2.574423   3.355908
H   1.289715   2.909593   1.707871
H   -0.287141   2.161416   1.997549
H   2.893875   -0.336177   3.303945
H   2.539138   1.227171   4.057689
H   1.793197   -1.766415   2.434566
H   2.485785   -1.439069   0.836883
H   -0.338483   -2.427014   1.506370
H   0.780821   -3.144845   0.348991
H   0.538488   -1.277794   -1.179199
H   -1.105345   -1.429146   -0.583112
H   -0.908968   0.416282   0.840570
H   -0.108779   1.106811   -1.534849
H   0.080719   2.239621   -0.215198
H   2.571208   -0.528518   -1.341228
H   1.759225   0.336700   -2.655841
H   3.942733   0.911624   -3.293489
H   4.602053   0.624276   -1.692136
H   4.317096   2.832234   -1.068324
H   3.871983   3.223448   -2.722538
H   1.535697   2.921394   -2.296029
H   2.037663   3.526969   -0.710088
C   3.834383   1.325858   2.300536
O   3.927598   0.718415   1.038981
C   5.110138   1.113887   3.077321
C   5.471897   2.019764   4.067743
C   6.620155   1.820858   4.815745
C   7.388884   0.704229   4.548985
N   8.620087   0.483479   5.339340
O   8.890053   1.306114   6.187285
O   9.272709   -0.505613   5.085361
C   7.056972   -0.210076   3.567812
C   5.904946   0.001287   2.828044
H   3.659479   2.404091   2.202934
H   4.864908   2.899066   4.250772
H   6.928664   2.513066   5.584823
H   7.696536   -1.062646   3.393971
H   5.633301   -0.687300   2.040103

