%chk=reactant.chk
#p opt freq B3LYP/6-31G(d) scrf=(iefpcm,solvent=acetone) Temperature=303.15

Converted from XYZ file

1 1
C   0.335395   2.390550   2.191590
C   1.225926   1.228707   2.540200
C   1.891748   1.232269   3.704260
N   1.373770   0.236681   1.568953
C   1.992968   -1.045117   1.940094
C   1.111417   -2.105235   1.290044
C   0.610754   -1.408127   0.033837
C   0.396569   0.039785   0.488716
C   0.527102   1.066435   -0.645445
N   1.934074   1.493412   -0.892054
H   2.386960   1.623521   0.028244
C   2.820130   0.515130   -1.616094
C   3.894554   1.392265   -2.231427
C   3.100560   2.603705   -2.718861
C   2.036537   2.810505   -1.641145
H   0.213653   3.029821   3.061206
H   0.772269   3.002778   1.396295
H   -0.657923   2.077496   1.867498
H   2.571049   0.452372   4.012685
H   1.728697   2.043225   4.398568
H   2.012129   -1.157526   3.021499
H   3.026836   -1.089483   1.581406
H   0.273862   -2.338716   1.949714
H   1.645609   -3.030545   1.084225
H   1.363703   -1.464190   -0.753082
H   -0.309191   -1.832423   -0.365279
H   -0.627224   0.132954   0.867026
H   0.128475   0.663437   -1.577776
H   -0.026791   1.970940   -0.408238
H   3.189561   -0.214603   -0.900674
H   2.215722   0.020710   -2.377184
H   4.420921   0.879074   -3.033017
H   4.618669   1.679359   -1.469380
H   3.716819   3.490831   -2.843385
H   2.628672   2.387434   -3.677787
H   1.057740   3.054565   -2.045554
H   2.317060   3.568315   -0.912580
C   4.312250   2.090987   2.090140
O   3.954442   1.797236   0.964367
C   5.298230   1.316044   2.862172
C   5.619529   1.733576   4.149396
C   6.540022   1.021652   4.900330
C   7.114830   -0.097033   4.329395
N   8.099596   -0.869336   5.126716
O   8.360286   -0.454497   6.233684
O   8.569692   -1.860452   4.612645
C   6.818130   -0.534147   3.048996
C   5.898075   0.184994   2.311076
H   3.918906   2.991814   2.583477
H   5.145439   2.613867   4.566289
H   6.815375   1.314444   5.902253
H   7.308584   -1.413419   2.658966
H   5.643201   -0.114198   1.303077

