%chk=knarr_saddle.chk
# B3LYP/6-31G(d) Opt=(TS,CalcAll,MaxStep=5) Freq SCRF=(IEFPCM,Solvent=Acetone) Temperature=303.15

Converted from XYZ file

1 1
C   -0.668482   2.639756   0.114199
C   -0.199145   1.395307   0.812005
C   -1.250356   0.414165   1.162000
N   1.091775   1.276235   1.010206
C   2.022133   2.452824   0.934559
C   3.166508   2.146548   1.922066
C   2.795516   0.805789   2.548751
C   1.968606   0.142856   1.454088
C   1.453970   -1.217031   1.881099
N   1.114363   -2.178911   0.821212
H   -0.019425   -1.904448   0.287165
C   1.987248   -2.191032   -0.379876
C   1.622331   -3.505632   -1.055313
C   1.371520   -4.475433   0.111851
C   1.126143   -3.578222   1.334013
H   -0.377492   3.565449   0.610891
H   -1.748660   2.635949   0.005949
H   -0.220987   2.652528   -0.882549
H   -0.990453   -0.176987   2.040389
H   -2.151407   0.990375   1.388171
H   1.481004   3.345507   1.224289
H   2.387745   2.589735   -0.083030
H   3.274377   2.934818   2.663312
H   4.116466   2.064014   1.395824
H   2.184923   0.926096   3.446083
H   3.667322   0.206596   2.807726
H   2.643349   -0.010339   0.605131
H   0.625665   -1.146270   2.584760
H   2.293154   -1.639176   2.440308
H   3.037223   -2.170343   -0.074335
H   1.764866   -1.322417   -1.000031
H   0.715476   -3.371358   -1.642695
H   2.412604   -3.845501   -1.721077
H   0.523912   -5.126327   -0.084696
H   2.236866   -5.112558   0.287557
H   0.191890   -3.782878   1.854846
H   1.943413   -3.665479   2.053102
C   -1.840470   -0.721774   -0.081365
O   -0.898420   -1.588706   -0.483604
C   -2.469128   0.112039   -1.192750
C   -3.745293   0.641996   -0.999220
C   -4.253524   1.611094   -1.849888
C   -3.469936   2.025107   -2.911073
N   -3.950717   3.139325   -3.757069
O   -3.209220   3.532963   -4.632411
O   -5.044114   3.597921   -3.505162
C   -2.246977   1.444784   -3.195149
C   -1.756586   0.468338   -2.337007
H   -2.646166   -1.174031   0.519506
H   -4.345245   0.304749   -0.161210
H   -5.220645   2.065856   -1.690975
H   -1.690036   1.786228   -4.056541
H   -0.807484   -0.010093   -2.544035

