%chk=product.chk
#p opt freq B3LYP/6-31G(d) scrf=(iefpcm,solvent=acetone) Temperature=303.15

Converted from XYZ file

1 1
C   -4.279546   1.811705   1.644325
C   -3.438173   0.585096   1.804345
C   -4.144124   -0.732179   1.814568
N   -2.156860   0.724022   1.873842
C   -1.528944   2.066820   1.706402
C   -0.047684   1.782021   1.531554
C   0.146595   0.533738   2.373467
C   -1.072994   -0.318574   2.045674
C   -1.328603   -1.418470   3.081684
N   -1.669222   -2.694653   2.471434
H   -2.543494   -2.347531   0.857623
C   -0.517087   -3.379293   1.861188
C   -1.049459   -4.784688   1.584274
C   -2.141689   -4.999760   2.659022
C   -2.182603   -3.680268   3.432855
H   -3.994141   2.584204   2.359221
H   -5.330557   1.574598   1.770582
H   -4.146433   2.222499   0.639052
H   -3.689492   -1.447408   2.492142
H   -5.171288   -0.563208   2.133347
H   -1.725686   2.648189   2.609027
H   -1.979228   2.574090   0.857034
H   0.561080   2.624525   1.849880
H   0.175847   1.576105   0.483784
H   0.151270   0.780134   3.439056
H   1.063700   -0.008643   2.150560
H   -0.953569   -0.763697   1.057848
H   -2.115623   -1.116459   3.776352
H   -0.417880   -1.523887   3.688423
H   0.320121   -3.406432   2.573958
H   -0.180466   -2.863257   0.960410
H   -1.477260   -4.836331   0.583779
H   -0.255141   -5.525761   1.637738
H   -3.105129   -5.202461   2.193175
H   -1.917870   -5.834823   3.319105
H   -3.181852   -3.402369   3.773665
H   -1.526600   -3.722516   4.314034
C   -4.152406   -1.379838   0.395694
O   -2.873241   -1.846955   0.076670
C   -4.617786   -0.393136   -0.648258
C   -5.968154   -0.064100   -0.724308
C   -6.407657   0.909666   -1.604450
C   -5.471868   1.541426   -2.403857
N   -5.926807   2.598537   -3.334319
O   -5.076669   3.167764   -3.984560
O   -7.115538   2.828074   -3.374089
C   -4.129642   1.217098   -2.370876
C   -3.703846   0.238171   -1.484033
H   -4.874631   -2.203128   0.449407
H   -6.687869   -0.576159   -0.095238
H   -7.450433   1.179561   -1.684973
H   -3.443677   1.720611   -3.036464
H   -2.663041   -0.053506   -1.453228

