%chk=reactant.chk
#p opt freq B3LYP/6-31G(d) scrf=(iefpcm,solvent=acetone) Temperature=303.15

Converted from XYZ file

1 1
C   -1.950609   1.778332   0.303239
C   -2.015520   1.096310   1.640450
C   -3.096605   1.185842   2.414954
N   -0.822693   0.368262   1.941174
C   0.250540   1.235374   2.470028
C   0.013630   1.283854   3.991097
C   -0.654650   -0.067920   4.316064
C   -0.828702   -0.721011   2.926347
C   -1.973387   -1.707940   2.852415
N   -1.919096   -2.653405   1.689255
H   -2.876958   -3.009970   1.595302
C   -1.600814   -2.078474   0.340092
C   -1.467469   -3.334465   -0.499764
C   -0.686280   -4.295880   0.415240
C   -0.987179   -3.822270   1.847229
H   -1.098186   2.457435   0.250539
H   -2.854368   2.353212   0.109587
H   -1.812846   1.043157   -0.492973
H   -3.149911   0.766320   3.409254
H   -3.960566   1.738530   2.070921
H   0.230563   2.213941   1.997970
H   1.212490   0.770126   2.243172
H   -0.652402   2.108561   4.239947
H   0.941293   1.432069   4.540597
H   -1.614535   0.071081   4.815398
H   -0.043363   -0.696196   4.963734
H   0.099844   -1.271187   2.723615
H   -2.933674   -1.206828   2.784687
H   -1.970788   -2.329422   3.748481
H   -0.670119   -1.521919   0.424156
H   -2.400393   -1.397777   0.056244
H   -2.457121   -3.734069   -0.730549
H   -0.956137   -3.143692   -1.440010
H   -0.981281   -5.331407   0.265613
H   0.382198   -4.226876   0.220277
H   -1.477105   -4.565126   2.472596
H   -0.098291   -3.465605   2.362879
C   -5.604189   -1.759570   1.125576
O   -4.622701   -2.475277   1.114687
C   -5.962913   -0.838269   0.035908
C   -7.009091   0.056767   0.233399
C   -7.338488   0.968737   -0.757134
C   -6.606481   0.944901   -1.927196
N   -6.941536   1.925652   -2.990362
O   -6.265022   1.900853   -3.994790
O   -7.861694   2.681220   -2.773653
C   -5.573243   0.051268   -2.160831
C   -5.250601   -0.846564   -1.163426
H   -6.282638   -1.764678   1.994844
H   -7.562624   0.045498   1.164353
H   -8.138929   1.683449   -0.638374
H   -5.052832   0.074883   -3.106575
H   -4.459877   -1.570668   -1.308135

