%chk=knarr_saddle.chk
# B3LYP/6-31G(d) Opt=(TS,CalcAll,MaxStep=5) Freq SCRF=(IEFPCM,Solvent=Acetone) Temperature=303.15

Converted from XYZ file

1 1
C   -2.721181   0.634323   0.690364
C   -1.737842   -0.485949   0.756116
C   -0.900686   -0.553110   1.902007
N   -1.465223   -1.216069   -0.296072
C   -0.606728   -2.425634   -0.228344
C   -0.829754   -3.143058   -1.564414
C   -2.091938   -2.492377   -2.140922
C   -1.981204   -1.044577   -1.666730
C   -0.984650   -0.289667   -2.554234
N   -0.679689   1.079005   -2.104214
H   -0.355897   1.016500   -1.033589
C   0.521848   1.677648   -2.764863
C   0.431800   3.165880   -2.413932
C   -1.047449   3.406264   -2.029794
C   -1.742765   2.086657   -2.342230
H   -3.560740   0.436193   0.030071
H   -3.103818   0.845355   1.685078
H   -2.201027   1.533174   0.347026
H   -1.334577   -0.166857   2.817265
H   -0.339583   -1.464225   2.055942
H   -0.943377   -3.025616   0.616410
H   0.430039   -2.138997   -0.059007
H   -0.946762   -4.214677   -1.427484
H   0.021905   -2.998993   -2.227674
H   -2.987841   -2.940263   -1.710988
H   -2.162173   -2.573430   -3.223879
H   -2.940597   -0.534925   -1.645984
H   -1.382230   -0.240679   -3.569810
H   -0.039231   -0.830280   -2.583268
H   0.438291   1.498134   -3.837118
H   1.408971   1.185373   -2.373241
H   0.738125   3.776817   -3.259571
H   1.088404   3.399626   -1.579155
H   -1.134168   3.639699   -0.968584
H   -1.502192   4.225727   -2.581040
H   -2.618361   1.879691   -1.733717
H   -2.023950   2.018117   -3.394687
C   0.342753   0.704393   1.382565
O   0.504016   0.762294   0.084445
C   1.532551   0.237234   2.180706
C   1.591195   0.455212   3.553571
C   2.624307   -0.086520   4.299277
C   3.583815   -0.839252   3.644498
N   4.652411   -1.480345   4.440953
O   4.645797   -1.294014   5.638684
O   5.454653   -2.165464   3.842692
C   3.572071   -1.031109   2.275672
C   2.537347   -0.479563   1.539864
H   -0.135842   1.576521   1.845862
H   0.825405   1.047487   4.046944
H   2.698688   0.059152   5.365885
H   4.360954   -1.602368   1.809717
H   2.496129   -0.588459   0.462932

