%chk=product.chk
#p opt freq B3LYP/6-31G(d) scrf=(iefpcm,solvent=acetone) Temperature=303.15

Converted from XYZ file

1 1
C   0.620980   -0.246194   -1.229897
C   1.527011   -1.422826   -1.350508
C   2.533406   -1.603431   -0.272151
N   1.546093   -2.190366   -2.383030
C   2.349040   -3.444734   -2.480654
C   1.859526   -4.132184   -3.761003
C   0.597692   -3.361138   -4.170520
C   0.872983   -1.945394   -3.680987
C   1.861644   -1.218092   -4.602260
N   2.339474   0.047845   -4.080150
H   3.487861   -0.349931   -2.520097
C   3.540303   0.527284   -4.796263
C   3.684486   1.973458   -4.322821
C   2.246564   2.395131   -3.937184
C   1.399341   1.165037   -4.257078
H   -0.256913   -0.304122   -1.864251
H   0.304060   -0.151132   -0.192464
H   1.176080   0.659134   -1.487729
H   2.108084   -1.366409   0.702325
H   2.948124   -2.606816   -0.242176
H   2.145957   -4.039970   -1.592916
H   3.405645   -3.183885   -2.500106
H   1.653817   -5.184642   -3.584139
H   2.620023   -4.078433   -4.537375
H   -0.283906   -3.760348   -3.668365
H   0.414685   -3.389891   -5.243092
H   -0.029229   -1.359424   -3.531625
H   1.369721   -1.095009   -5.578031
H   2.728198   -1.863279   -4.762883
H   3.368302   0.485976   -5.880522
H   4.402448   -0.098468   -4.562918
H   4.107841   2.603287   -5.101768
H   4.349860   2.028095   -3.462007
H   2.186885   2.638567   -2.875443
H   1.901010   3.268110   -4.486062
H   0.519333   1.064408   -3.623025
H   1.054663   1.192079   -5.301161
C   3.702084   -0.604246   -0.582405
O   4.136598   -0.760852   -1.911446
C   4.837343   -0.882826   0.370760
C   4.829367   -0.310622   1.637772
C   5.837877   -0.595730   2.543328
C   6.843499   -1.458904   2.152889
N   7.926469   -1.770250   3.111921
O   7.875825   -1.235899   4.198414
O   8.787680   -2.540104   2.745198
C   6.880782   -2.036913   0.898588
C   5.865715   -1.742813   0.002965
H   3.338204   0.415260   -0.410233
H   4.040271   0.376396   1.921710
H   5.859840   -0.158140   3.530184
H   7.694167   -2.698179   0.639645
H   5.884057   -2.164725   -0.992310

