%chk=reactant.chk
#p opt freq B3LYP/6-31G(d) scrf=(iefpcm,solvent=acetone) Temperature=303.15

Converted from XYZ file

1 1
C   0.338390   -0.284803   -1.308067
C   1.313285   -1.379654   -0.975743
C   1.570958   -1.667961   0.307921
N   1.981590   -2.011852   -2.029830
C   2.659706   -3.283344   -1.715764
C   2.711101   -4.054913   -3.030198
C   1.478242   -3.538058   -3.770756
C   1.472667   -2.051069   -3.407013
C   2.414230   -1.308696   -4.359080
N   2.572232   0.122607   -4.002601
H   2.685281   0.182630   -2.977210
C   3.792616   0.778137   -4.581848
C   3.523150   2.283419   -4.462293
C   2.018865   2.405027   -4.130108
C   1.456942   1.024674   -4.426938
H   -0.467296   -0.616039   -1.964856
H   -0.119336   0.077068   -0.391224
H   0.840863   0.567050   -1.774187
H   1.036711   -1.143615   1.086291
H   2.280097   -2.420246   0.617974
H   2.061843   -3.829737   -0.979940
H   3.644696   -3.109382   -1.279922
H   2.683914   -5.129688   -2.866094
H   3.624835   -3.837267   -3.585777
H   0.575944   -4.006071   -3.375489
H   1.504828   -3.714274   -4.846163
H   0.473194   -1.624968   -3.473912
H   2.057597   -1.355877   -5.388939
H   3.407011   -1.756034   -4.312429
H   3.865954   0.447643   -5.617430
H   4.662360   0.431558   -4.029915
H   3.770014   2.782488   -5.396694
H   4.130958   2.725026   -3.676953
H   1.882204   2.638628   -3.074372
H   1.515790   3.173360   -4.711587
H   0.543191   0.771186   -3.897867
H   1.313010   0.858774   -5.495747
C   3.682562   0.584092   -0.307837
O   3.545670   0.834894   -1.490207
C   4.690699   -0.347532   0.226485
C   4.763348   -0.541142   1.601525
C   5.689314   -1.424711   2.130720
C   6.520217   -2.094720   1.253806
N   7.506394   -3.054785   1.808257
O   7.549381   -3.168105   3.012458
O   8.194245   -3.658689   1.014261
C   6.476843   -1.916520   -0.119186
C   5.549845   -1.029883   -0.632170
H   3.046415   1.082194   0.440365
H   4.088067   -0.005727   2.257573
H   5.774175   -1.601656   3.192369
H   7.161511   -2.464654   -0.749213
H   5.484558   -0.855023   -1.697810

