%chk=knarr_saddle.chk
# B3LYP/6-31G(d) Opt=(TS,CalcAll,MaxStep=5) Freq SCRF=(IEFPCM,Solvent=Acetone) Temperature=303.15

Converted from XYZ file

1 1
C   -1.532852   0.893146   -1.695846
C   -0.755143   1.383554   -0.512766
C   0.525850   1.827711   -0.678075
N   -1.360684   1.285198   0.694787
C   -2.823497   1.157564   0.839963
C   -3.140042   1.981846   2.082783
C   -1.903986   1.783685   2.950183
C   -0.747718   1.756989   1.940724
C   0.470500   0.966834   2.432497
N   0.448112   -0.515398   2.286826
H   0.843890   -0.706993   1.296057
C   -0.832316   -1.280889   2.347880
C   -0.362084   -2.726471   2.428339
C   0.971014   -2.676533   3.207811
C   1.341464   -1.191649   3.277794
H   -2.325508   1.593712   -1.961776
H   -0.875842   0.785977   -2.554275
H   -1.997502   -0.073629   -1.490452
H   1.079180   2.277286   0.130505
H   0.831994   2.081871   -1.677083
H   -3.333214   1.533374   -0.042438
H   -3.109100   0.109805   0.972229
H   -3.251906   3.033938   1.816268
H   -4.057781   1.656979   2.568051
H   -1.761858   2.565907   3.693469
H   -1.972799   0.838755   3.487138
H   -0.383367   2.782224   1.793023
H   1.374776   1.287931   1.916103
H   0.609541   1.209388   3.486503
H   -1.421448   -1.060707   1.461291
H   -1.375829   -0.993830   3.245953
H   -0.205457   -3.120060   1.425353
H   -1.111183   -3.344223   2.917989
H   0.865224   -3.079043   4.214583
H   1.742107   -3.247457   2.696034
H   1.109829   -0.765304   4.254291
H   2.380277   -0.966644   3.036555
C   1.699788   -0.078708   -0.826904
O   1.188179   -0.937112   -0.082994
C   1.654646   -0.274696   -2.296204
C   2.266341   0.610404   -3.182100
C   2.219870   0.367169   -4.543918
C   1.565917   -0.772668   -4.980625
N   1.469434   -1.023515   -6.435744
O   1.977297   -0.205753   -7.171710
O   0.881203   -2.021738   -6.787309
C   0.994984   -1.690545   -4.120719
C   1.040532   -1.426740   -2.764815
H   2.497808   0.575010   -0.459372
H   2.770881   1.497124   -2.814936
H   2.673639   1.033668   -5.264302
H   0.532139   -2.584379   -4.509812
H   0.614698   -2.112362   -2.046806

