%chk=product.chk
#p opt freq B3LYP/6-31G(d) scrf=(iefpcm,solvent=acetone) Temperature=303.15

Converted from XYZ file

1 1
C   -5.283803   5.020976   -3.803556
C   -4.588635   5.426238   -2.549114
C   -3.112970   5.608258   -2.610574
N   -5.261243   5.619033   -1.466798
C   -6.743772   5.551948   -1.422706
C   -7.104218   6.507064   -0.298514
C   -5.987912   6.271395   0.709056
C   -4.724011   6.077892   -0.137068
C   -3.671512   5.171851   0.527591
N   -3.780987   3.748471   0.264438
H   -3.518959   3.314632   -1.443148
C   -4.951907   3.067511   0.836640
C   -4.597933   1.579499   0.743384
C   -3.053699   1.546725   0.688579
C   -2.641786   3.007431   0.840537
H   -5.848676   5.871491   -4.197224
H   -4.559210   4.715587   -4.552700
H   -5.977030   4.200788   -3.624132
H   -2.728487   6.092223   -1.718735
H   -2.899186   6.258165   -3.462172
H   -7.157736   5.832506   -2.385600
H   -7.036139   4.524092   -1.199526
H   -7.090513   7.534590   -0.665786
H   -8.094113   6.305001   0.103012
H   -5.857719   7.096946   1.405217
H   -6.188120   5.375012   1.295442
H   -4.264124   7.052180   -0.316166
H   -2.669331   5.476818   0.224233
H   -3.737274   5.380146   1.607256
H   -5.862066   3.315726   0.290540
H   -5.087098   3.372563   1.884829
H   -5.025238   1.137417   -0.155283
H   -4.996023   1.032131   1.594895
H   -2.619128   0.927122   1.469203
H   -2.713007   1.157923   -0.269775
H   -2.517884   3.276561   1.898596
H   -1.719358   3.260259   0.315429
C   -2.450883   4.200501   -2.822411
O   -3.331804   3.185493   -2.406725
C   -2.041399   3.960293   -4.259871
C   -1.154391   4.842437   -4.874331
C   -0.747209   4.640238   -6.180133
C   -1.242745   3.540992   -6.858092
N   -0.817751   3.317832   -8.257060
O   -0.044409   4.118807   -8.736377
O   -1.273942   2.351330   -8.828306
C   -2.111872   2.642799   -6.274277
C   -2.509248   2.856273   -4.961386
H   -1.537840   4.191879   -2.214429
H   -0.759918   5.691138   -4.326497
H   -0.056978   5.308135   -6.673574
H   -2.461051   1.792979   -6.842096
H   -3.176159   2.158436   -4.476474

