%chk=reactant.chk
#p opt freq B3LYP/6-31G(d) scrf=(iefpcm,solvent=acetone) Temperature=303.15

Converted from XYZ file

1 1
C   -5.016747   5.351262   -3.847220
C   -4.409830   5.924746   -2.596170
C   -3.326960   6.715019   -2.655005
N   -5.024041   5.530066   -1.412579
C   -6.481427   5.343912   -1.330447
C   -6.847939   5.920010   0.035016
C   -5.606651   5.631278   0.875012
C   -4.470671   5.896978   -0.116656
C   -3.133450   5.221751   0.161445
N   -3.102659   3.718586   0.254723
H   -2.201928   3.470213   -0.171742
C   -4.084206   2.886137   -0.527157
C   -3.769400   1.495788   -0.009541
C   -3.612361   1.707545   1.504863
C   -3.125143   3.157181   1.654538
H   -5.969837   5.825211   -4.085351
H   -4.350312   5.507771   -4.692976
H   -5.203373   4.280591   -3.737713
H   -2.899245   7.209605   -1.794723
H   -2.899268   6.951121   -3.618220
H   -6.992168   5.863030   -2.138431
H   -6.748364   4.282761   -1.399759
H   -6.992784   6.998204   -0.047527
H   -7.757831   5.487656   0.445747
H   -5.525032   6.258846   1.761106
H   -5.617409   4.591148   1.208197
H   -4.238776   6.972703   -0.088041
H   -2.445412   5.471366   -0.641817
H   -2.713938   5.596899   1.094959
H   -3.914357   3.046744   -1.586740
H   -5.090107   3.196878   -0.264765
H   -2.837932   1.139512   -0.454468
H   -4.552371   0.782066   -0.255456
H   -4.570230   1.585793   2.008489
H   -2.915697   1.001431   1.949312
H   -3.798343   3.771896   2.246332
H   -2.123007   3.248872   2.067573
C   -1.196655   4.158234   -2.902634
O   -1.442415   3.470852   -1.930685
C   -1.697323   3.874727   -4.258292
C   -1.409731   4.773652   -5.280030
C   -1.898478   4.553595   -6.557467
C   -2.664931   3.424182   -6.770996
N   -3.201067   3.180633   -8.133827
O   -2.915808   3.985673   -8.991564
O   -3.888727   2.195279   -8.286768
C   -2.956979   2.505229   -5.776510
C   -2.464258   2.738012   -4.507046
H   -0.566050   5.056570   -2.805107
H   -0.806992   5.650126   -5.074957
H   -1.697148   5.229549   -7.375104
H   -3.553850   1.636815   -6.012282
H   -2.658774   2.040032   -3.703287

