%chk=knarr_saddle.chk
# B3LYP/6-31G(d) Opt=(TS,CalcAll,MaxStep=5) Freq SCRF=(IEFPCM,Solvent=Acetone) Temperature=303.15

Converted from XYZ file

1 1
C   0.712818   -0.238203   -3.168492
C   0.427154   0.415756   -1.845150
C   1.324646   0.197213   -0.716078
N   -0.628036   1.207231   -1.825864
C   -1.303580   1.722564   -3.053538
C   -2.108315   2.942786   -2.584717
C   -1.547187   3.270034   -1.196180
C   -1.149551   1.905185   -0.636830
C   -2.373629   1.204003   -0.033318
N   -2.217954   -0.231423   0.237196
H   -1.033546   -0.486570   0.731537
C   -2.539639   -1.124815   -0.903817
C   -2.939577   -2.473832   -0.282334
C   -3.040880   -2.208080   1.232080
C   -3.095932   -0.693355   1.344560
H   -0.203891   -0.567676   -3.661334
H   1.196252   0.478492   -3.840611
H   1.383502   -1.084859   -3.055770
H   1.425221   1.069012   -0.076764
H   2.275029   -0.187162   -1.077649
H   -0.539131   2.005595   -3.775985
H   -1.935090   0.961778   -3.514626
H   -3.171740   2.710567   -2.538879
H   -1.998255   3.775376   -3.277031
H   -0.665288   3.905226   -1.277740
H   -2.269876   3.782131   -0.562493
H   -0.360952   1.962749   0.108409
H   -3.250773   1.343928   -0.674161
H   -2.578036   1.709822   0.912423
H   -3.370928   -0.683752   -1.461481
H   -1.685735   -1.202220   -1.574121
H   -2.210175   -3.252155   -0.500777
H   -3.892511   -2.800630   -0.694039
H   -2.157292   -2.582302   1.747553
H   -3.913472   -2.675533   1.682048
H   -4.106742   -0.303729   1.187176
H   -2.707072   -0.309588   2.287204
C   1.033279   -0.999990   0.730890
O   -0.060681   -0.640572   1.379676
C   2.323813   -0.919106   1.539594
C   2.455121   -0.015021   2.597015
C   3.653474   0.100487   3.288335
C   4.712975   -0.710551   2.925041
N   6.003162   -0.564511   3.640265
O   6.915203   -1.283089   3.297770
O   6.061001   0.277160   4.514437
C   4.609657   -1.648842   1.914611
C   3.404999   -1.747265   1.228830
H   0.981056   -1.931129   0.157646
H   1.610001   0.594538   2.889032
H   3.781029   0.800151   4.103447
H   5.455554   -2.284050   1.686124
H   3.310519   -2.491773   0.446882

