%chk=product.chk
#p opt freq B3LYP/6-31G(d) scrf=(iefpcm,solvent=acetone) Temperature=303.15

Converted from XYZ file

1 1
C   5.933970   1.505670   -0.252425
C   5.553333   2.384854   0.891506
C   6.488885   2.399093   2.052703
N   4.492631   3.111650   0.809576
C   3.727532   3.336623   -0.444821
C   3.093391   4.728053   -0.263158
C   3.606498   5.240117   1.095203
C   3.904406   3.962609   1.868639
C   2.609543   3.328815   2.401311
N   2.753415   1.961597   2.875124
H   4.341745   1.754269   3.578359
C   2.396735   0.916713   1.904531
C   2.325694   -0.356939   2.747910
C   1.984095   0.139096   4.172164
C   1.897292   1.658318   4.039898
H   5.083023   1.166511   -0.837194
H   6.618250   2.052015   -0.909494
H   6.480930   0.643612   0.126783
H   6.505172   3.362360   2.560184
H   7.480594   2.219768   1.633341
H   4.414347   3.297009   -1.285421
H   2.985706   2.546210   -0.561531
H   2.008577   4.651041   -0.272396
H   3.376119   5.392236   -1.075690
H   4.520011   5.822210   0.973185
H   2.878615   5.864298   1.610051
H   4.615823   4.072834   2.682033
H   1.815538   3.397389   1.645331
H   2.298884   3.962385   3.233692
H   1.420229   1.144453   1.451854
H   3.131289   0.847732   1.100255
H   3.285886   -0.872536   2.742916
H   1.584842   -1.048842   2.353464
H   2.771299   -0.136637   4.871454
H   1.051210   -0.277789   4.544677
H   0.866210   1.978143   3.839046
H   2.258448   2.193353   4.918076
C   6.207081   1.314139   3.139422
O   5.225365   1.757066   4.025895
C   7.494033   1.048183   3.888304
C   7.748083   1.679115   5.098710
C   8.952370   1.467451   5.752806
C   9.880582   0.623258   5.176360
N   11.168776   0.400939   5.868146
O   11.963513   -0.344389   5.336167
O   11.343969   0.982020   6.917056
C   9.650496   -0.026114   3.977585
C   8.444438   0.194860   3.336734
H   5.903506   0.384260   2.637227
H   6.998068   2.322683   5.535643
H   9.177060   1.943298   6.695630
H   10.401114   -0.689208   3.574087
H   8.239566   -0.318793   2.403333

