%chk=reactant.chk
#p opt freq B3LYP/6-31G(d) scrf=(iefpcm,solvent=acetone) Temperature=303.15

Converted from XYZ file

1 1
C   5.214970   1.798408   -1.330110
C   5.179298   2.181815   0.122497
C   5.970799   1.566117   1.014374
N   4.235042   3.150335   0.446163
C   3.843143   4.164791   -0.548676
C   3.048966   5.169396   0.269697
C   3.800577   5.173825   1.599459
C   4.164513   3.696023   1.797849
C   3.084723   3.035247   2.655710
N   3.111873   1.541007   2.695548
H   4.084899   1.231298   2.809134
C   2.540693   0.831529   1.477750
C   1.622549   -0.264088   2.028312
C   2.049546   -0.423173   3.488226
C   2.366050   1.001971   3.886184
H   4.221564   1.515453   -1.685008
H   5.558336   2.627905   -1.949984
H   5.891342   0.961669   -1.481590
H   6.024104   1.838183   2.057942
H   6.650685   0.798103   0.676101
H   4.725861   4.643763   -0.986287
H   3.262463   3.721642   -1.356398
H   2.021476   4.823417   0.403852
H   3.008748   6.149778   -0.199505
H   4.714129   5.762367   1.512474
H   3.222359   5.580267   2.429747
H   5.129984   3.601419   2.300353
H   2.088159   3.311998   2.308297
H   3.195270   3.377212   3.685503
H   2.026952   1.567456   0.866798
H   3.385042   0.443220   0.914963
H   1.715445   -1.184088   1.456332
H   0.580999   0.053687   1.976704
H   2.945948   -1.039308   3.575280
H   1.274145   -0.857963   4.114613
H   1.459652   1.599065   3.993421
H   2.993047   1.116786   4.765969
C   6.415676   -0.091066   4.249193
O   5.372546   0.512061   4.090550
C   7.645062   0.508576   4.787251
C   7.653439   1.832863   5.224506
C   8.817064   2.385139   5.720114
C   9.952212   1.590959   5.760153
N   11.206816   2.184543   6.287196
O   12.183188   1.470170   6.323046
O   11.161590   3.341930   6.641502
C   9.975486   0.277461   5.335478
C   8.798986   -0.266166   4.845464
H   6.484634   -1.157425   3.975943
H   6.741275   2.412000   5.178688
H   8.865936   3.403962   6.074256
H   10.891914   -0.290381   5.394055
H   8.778996   -1.294099   4.505162

