%chk=knarr_saddle.chk
# B3LYP/6-31G(d) Opt=(TS,CalcAll,MaxStep=5) Freq SCRF=(IEFPCM,Solvent=Acetone) Temperature=303.15

Converted from XYZ file

1 1
C   -1.964614   -0.118046   0.095216
C   -1.353090   0.103768   -1.243610
C   -1.109551   1.464528   -1.639787
N   -0.855304   -0.876532   -1.937903
C   -0.438792   -0.758278   -3.362039
C   -0.312900   -2.209252   -3.852561
C   -0.956402   -3.056097   -2.746398
C   -0.648107   -2.260632   -1.481985
C   0.815367   -2.458705   -1.079861
N   1.243884   -1.693766   0.106105
H   1.017566   -0.610708   -0.071237
C   2.737039   -1.731067   0.281295
C   2.985415   -1.604793   1.791489
C   1.590559   -1.587918   2.440420
C   0.694448   -2.211668   1.387401
H   -2.606914   0.722076   0.350114
H   -2.538371   -1.040406   0.151600
H   -1.161820   -0.129935   0.836814
H   -0.874271   1.612763   -2.686182
H   -1.892041   2.140613   -1.322236
H   0.491493   -0.197342   -3.441874
H   -1.220759   -0.218072   -3.892751
H   0.732567   -2.481244   -3.990889
H   -0.806359   -2.348680   -4.810833
H   -2.037660   -3.109749   -2.876484
H   -0.570310   -4.072737   -2.705841
H   -1.314604   -2.492157   -0.654961
H   0.981157   -3.517201   -0.871122
H   1.470583   -2.173219   -1.902601
H   3.153552   -0.917747   -0.308154
H   3.091942   -2.684424   -0.110057
H   3.547751   -0.705581   2.028704
H   3.563273   -2.457759   2.141753
H   1.267486   -0.569476   2.648343
H   1.550909   -2.142264   3.375096
H   -0.360103   -1.967365   1.488369
H   0.802157   -3.298808   1.366873
C   0.347908   1.808392   -0.727409
O   1.102284   0.728493   -0.542872
C   -0.104021   2.554243   0.522265
C   0.231925   2.116033   1.797081
C   -0.253911   2.769939   2.922568
C   -1.065407   3.871811   2.748248
N   -1.642945   4.536566   3.934028
O   -2.352476   5.500270   3.739962
O   -1.381345   4.067134   5.021498
C   -1.360498   4.376399   1.494146
C   -0.866652   3.713041   0.389180
H   0.789228   2.532307   -1.427341
H   0.902712   1.275187   1.903770
H   -0.018819   2.442288   3.924178
H   -1.969748   5.261485   1.400403
H   -1.073411   4.104291   -0.599928

