%chk=product.chk
#p opt freq B3LYP/6-31G(d) scrf=(iefpcm,solvent=acetone) Temperature=303.15

Converted from XYZ file

1 1
C   -4.853068   5.304862   0.339498
C   -4.147615   5.466104   -0.961989
C   -3.853381   6.852140   -1.419528
N   -3.698555   4.467896   -1.638940
C   -3.099765   4.572336   -3.003351
C   -2.944281   3.124761   -3.483596
C   -3.745203   2.286842   -2.479710
C   -3.600551   3.062638   -1.177086
C   -2.213637   2.866120   -0.553707
N   -1.983804   3.660101   0.639794
H   -1.795155   5.604718   -0.120887
C   -0.551725   3.653623   1.017479
C   -0.528208   4.039247   2.504004
C   -1.985598   3.866259   2.979151
C   -2.648059   3.114392   1.834467
H   -5.572014   6.113314   0.458781
H   -5.363239   4.350761   0.433520
H   -4.127364   5.398657   1.151998
H   -3.643792   6.892154   -2.483571
H   -4.693980   7.507794   -1.205282
H   -2.158324   5.113749   -2.934324
H   -3.789777   5.134979   -3.628556
H   -1.895634   2.834350   -3.485577
H   -3.312804   3.008899   -4.499666
H   -4.796479   2.235935   -2.765235
H   -3.372423   1.268598   -2.387633
H   -4.386581   2.847734   -0.458830
H   -2.096136   1.791200   -0.348941
H   -1.453663   3.134022   -1.291980
H   0.013304   4.332521   0.376666
H   -0.139124   2.645471   0.881308
H   -0.176478   5.058877   2.653300
H   0.151328   3.389490   3.051663
H   -2.467082   4.835875   3.114095
H   -2.062963   3.327500   3.920994
H   -3.729207   3.246611   1.796773
H   -2.446255   2.035164   1.911482
C   -2.571287   7.336453   -0.654330
O   -1.571155   6.348408   -0.716085
C   -2.868801   7.813282   0.756924
C   -2.104837   7.363283   1.825988
C   -2.379188   7.782323   3.120085
C   -3.419292   8.665300   3.320219
N   -3.734010   9.098358   4.699183
O   -4.635534   9.895651   4.837022
O   -3.072221   8.618945   5.594378
C   -4.174089   9.165434   2.274628
C   -3.890003   8.733916   0.991391
H   -2.187363   8.183506   -1.225730
H   -1.275038   6.693668   1.649711
H   -1.798229   7.439314   3.964343
H   -4.962095   9.876203   2.475332
H   -4.468037   9.138226   0.169184

