%chk=reactant.chk
#p opt freq B3LYP/6-31G(d) scrf=(iefpcm,solvent=acetone) Temperature=303.15

Converted from XYZ file

1 1
C   -4.738355   5.133392   0.598665
C   -4.229222   5.454150   -0.777293
C   -4.453945   6.664422   -1.309120
N   -3.494138   4.476291   -1.452152
C   -3.448875   4.565340   -2.925177
C   -3.393554   3.121171   -3.432527
C   -3.967343   2.311450   -2.268767
C   -3.441700   3.070924   -1.048512
C   -1.994534   2.649141   -0.787920
N   -1.378258   3.368055   0.358869
H   -1.624136   4.369768   0.284100
C   0.137950   3.310594   0.371283
C   0.543641   3.106802   1.835105
C   -0.729487   3.401839   2.633081
C   -1.821094   2.892432   1.712223
H   -5.274823   5.992536   0.993552
H   -5.422665   4.283435   0.599848
H   -3.918137   4.916879   1.287830
H   -4.096359   6.955457   -2.285879
H   -5.043931   7.383969   -0.762273
H   -2.602766   5.163899   -3.266929
H   -4.361507   5.058632   -3.267667
H   -2.371260   2.813849   -3.656636
H   -3.968113   2.999347   -4.347876
H   -5.056805   2.358650   -2.271105
H   -3.675156   1.261398   -2.282814
H   -4.045130   2.889031   -0.160957
H   -1.919692   1.580353   -0.582311
H   -1.388174   2.876457   -1.663928
H   0.494465   4.247770   -0.049219
H   0.448504   2.492339   -0.273500
H   1.372139   3.753276   2.113002
H   0.859003   2.075880   1.994624
H   -0.850764   4.473631   2.790972
H   -0.750323   2.902870   3.599109
H   -2.817971   3.266493   1.925342
H   -1.843422   1.802094   1.679276
C   -2.006346   7.184978   0.571561
O   -1.593556   6.083931   0.890738
C   -2.822953   8.035508   1.453124
C   -3.151996   7.608452   2.738243
C   -3.950256   8.397682   3.543369
C   -4.401928   9.603761   3.034651
N   -5.274145   10.445794   3.890928
O   -5.667186   11.489871   3.421016
O   -5.532503   10.024849   4.997053
C   -4.082865   10.059540   1.769887
C   -3.279988   9.259362   0.974501
H   -1.765181   7.605841   -0.415458
H   -2.775820   6.659550   3.096289
H   -4.229120   8.103143   4.543956
H   -4.461320   11.012080   1.431054
H   -3.017381   9.579590   -0.026380

