%chk=knarr_saddle.chk
# B3LYP/6-31G(d) Opt=(TS,CalcAll,MaxStep=5) Freq SCRF=(IEFPCM,Solvent=Acetone) Temperature=303.15

Converted from XYZ file

1 1
C   -1.048417   1.865953   2.031000
C   -1.323423   1.351573   0.658951
C   -0.800606   2.085480   -0.435812
N   -1.811000   0.149295   0.462981
C   -2.235604   -0.312422   -0.883573
C   -3.019011   -1.603139   -0.630866
C   -3.338285   -1.569059   0.867962
C   -2.108850   -0.887003   1.470500
C   -0.974173   -1.912609   1.582700
N   0.316829   -1.355831   2.031347
H   0.557646   -0.500831   1.369569
C   0.425815   -0.993323   3.470249
C   1.913759   -0.698896   3.632275
C   2.613242   -1.614475   2.599623
C   1.479269   -2.275021   1.813071
H   -0.032924   1.568075   2.311093
H   -1.075783   2.952521   2.022882
H   -1.749258   1.505290   2.779339
H   -1.173988   1.846357   -1.420930
H   -0.689784   3.149417   -0.263806
H   -1.366831   -0.451091   -1.525925
H   -2.866442   0.463230   -1.317640
H   -2.419220   -2.476628   -0.883279
H   -3.917372   -1.647514   -1.241112
H   -4.220242   -0.958478   1.061711
H   -3.512767   -2.557553   1.290084
H   -2.313810   -0.427883   2.434456
H   -1.280279   -2.706682   2.268525
H   -0.792266   -2.357463   0.604962
H   -0.221929   -0.153887   3.702154
H   0.108217   -1.854442   4.062278
H   2.242943   -0.880460   4.651849
H   2.113310   0.348428   3.404539
H   3.238688   -1.025934   1.932661
H   3.243591   -2.363049   3.072557
H   1.218269   -3.261370   2.200684
H   1.665031   -2.335919   0.744673
C   0.938244   1.375491   -0.400568
O   1.006422   0.211494   0.183260
C   1.244882   1.391415   -1.876001
C   1.461039   2.588979   -2.551828
C   1.640883   2.599757   -3.923955
C   1.603359   1.392033   -4.599430
N   1.733104   1.391269   -6.071732
O   1.892679   2.458255   -6.620197
O   1.659016   0.316849   -6.636442
C   1.438561   0.183481   -3.949836
C   1.264347   0.190421   -2.575848
H   1.408144   2.221610   0.122895
H   1.480465   3.526187   -2.007351
H   1.795258   3.514658   -4.478398
H   1.442863   -0.733708   -4.520272
H   1.146393   -0.732849   -2.026031

