%chk=product.chk
#p opt freq B3LYP/6-31G(d) scrf=(iefpcm,solvent=acetone) Temperature=303.15

Converted from XYZ file

1 1
C   1.408335   2.774488   0.820771
C   1.073383   1.987899   -0.399256
C   1.636652   2.476716   -1.684780
N   0.436533   0.870527   -0.360359
C   -0.023767   0.124399   -1.568643
C   -0.937491   -0.982443   -1.028817
C   -1.170038   -0.624706   0.445306
C   0.123157   0.071772   0.848695
C   1.257901   -0.939190   1.062442
N   2.566654   -0.336949   1.230851
H   3.084798   0.455897   -0.506651
C   2.817385   0.189321   2.581170
C   4.320342   0.458454   2.581734
C   4.889196   -0.581959   1.587719
C   3.656544   -1.321733   1.067239
H   2.442793   2.567597   1.106218
H   1.341019   3.835185   0.583924
H   0.767745   2.560180   1.669433
H   1.129110   2.068032   -2.553920
H   1.607594   3.564436   -1.735659
H   0.847320   -0.248793   -2.104246
H   -0.561138   0.822715   -2.206870
H   -0.456983   -1.954113   -1.123977
H   -1.867667   -1.027195   -1.589112
H   -2.009438   0.062814   0.552543
H   -1.369231   -1.497140   1.064990
H   0.010612   0.723444   1.710297
H   0.982989   -1.560811   1.926854
H   1.303163   -1.602452   0.195874
H   2.215843   1.071959   2.794988
H   2.559937   -0.577076   3.326983
H   4.741029   0.363133   3.580036
H   4.529521   1.473233   2.240054
H   5.414211   -0.091311   0.769014
H   5.589737   -1.267258   2.059199
H   3.448245   -2.211517   1.677065
H   3.739745   -1.633711   0.025563
C   3.130527   1.997962   -1.726054
O   3.208256   0.617999   -1.464979
C   3.691672   2.300238   -3.092791
C   4.202524   3.564539   -3.363761
C   4.674458   3.875020   -4.628360
C   4.621811   2.898758   -5.604525
N   5.123373   3.218958   -6.959317
O   5.571124   4.331001   -7.136617
O   5.049676   2.347472   -7.798319
C   4.126274   1.632076   -5.362096
C   3.658539   1.334957   -4.092468
H   3.694677   2.567210   -0.978237
H   4.249251   4.313586   -2.581404
H   5.083540   4.846390   -4.862807
H   4.116560   0.901715   -6.157352
H   3.287413   0.343814   -3.871567

