%chk=reactant.chk
#p opt freq B3LYP/6-31G(d) scrf=(iefpcm,solvent=acetone) Temperature=303.15

Converted from XYZ file

1 1
C   1.341203   2.754324   1.287201
C   1.114009   2.641010   -0.193765
C   1.083715   3.753032   -0.941970
N   1.013449   1.363291   -0.757440
C   0.461661   1.296386   -2.123001
C   -0.060710   -0.123907   -2.273281
C   -0.507422   -0.456287   -0.850696
C   0.599332   0.174432   0.003048
C   1.734122   -0.845304   0.131018
N   2.918479   -0.334745   0.865927
H   3.154463   0.601139   0.490872
C   2.774947   -0.262679   2.354635
C   4.192484   0.033360   2.821831
C   5.099437   -0.688679   1.797896
C   4.154926   -1.166556   0.692031
H   2.308588   2.335722   1.574567
H   1.354779   3.804555   1.566808
H   0.560094   2.270837   1.875355
H   0.935884   3.744548   -2.011152
H   1.182129   4.716544   -0.464375
H   1.215480   1.560078   -2.865478
H   -0.359931   2.015370   -2.211620
H   0.725801   -0.802836   -2.610328
H   -0.871087   -0.183975   -2.996067
H   -1.456811   0.033073   -0.631008
H   -0.629445   -1.523428   -0.664885
H   0.233941   0.442549   0.993283
H   1.393258   -1.741581   0.651592
H   2.079066   -1.129374   -0.863389
H   2.034397   0.480515   2.630302
H   2.434378   -1.248124   2.675852
H   4.348318   -0.310026   3.841389
H   4.374978   1.107275   2.799379
H   5.844796   -0.006397   1.397420
H   5.623060   -1.534496   2.236841
H   3.851509   -2.205414   0.821348
H   4.535488   -1.028181   -0.316156
C   4.146724   2.728194   -1.032469
O   4.248964   1.941149   -0.110535
C   3.903043   2.330248   -2.432324
C   3.637870   3.315070   -3.377070
C   3.370951   2.964505   -4.691471
C   3.388906   1.623749   -5.022927
N   3.088626   1.234362   -6.422882
O   2.888707   2.127357   -7.214285
O   3.059101   0.048051   -6.669052
C   3.674444   0.621673   -4.110004
C   3.932340   0.987824   -2.803596
H   4.254270   3.807903   -0.850756
H   3.626511   4.356705   -3.080305
H   3.154056   3.701686   -5.450149
H   3.693746   -0.407489   -4.436946
H   4.174381   0.238503   -2.063188

