%chk=knarr_saddle.chk
# B3LYP/6-31G(d) Opt=(TS,CalcAll,MaxStep=5) Freq SCRF=(IEFPCM,Solvent=Acetone) Temperature=303.15

Converted from XYZ file

1 1
C   1.428717   2.073139   0.283972
C   1.499371   0.614149   0.593365
C   0.767856   0.176632   1.734575
N   2.083485   -0.183450   -0.279675
C   2.819453   0.340838   -1.460000
C   3.986138   -0.617794   -1.627300
C   3.366539   -1.952555   -1.247044
C   2.431952   -1.624535   -0.072516
C   1.266450   -2.616216   0.048828
N   0.050099   -2.274549   -0.701883
H   -0.440768   -1.199413   -0.369426
C   0.140657   -2.269021   -2.183091
C   -1.320600   -2.227813   -2.630435
C   -2.116945   -2.875387   -1.474028
C   -1.074095   -3.205165   -0.406584
H   2.416022   2.537996   0.271519
H   0.822812   2.579705   1.027859
H   0.970832   2.212038   -0.695775
H   0.747433   0.896193   2.544330
H   0.942719   -0.839961   2.078918
H   2.168814   0.334420   -2.337324
H   3.136290   1.360816   -1.279491
H   4.385542   -0.603354   -2.639516
H   4.792454   -0.350612   -0.942770
H   2.792714   -2.348580   -2.085660
H   4.097270   -2.711042   -0.970185
H   2.999925   -1.678818   0.859474
H   0.972259   -2.740418   1.090043
H   1.633209   -3.592619   -0.286394
H   0.641393   -3.183748   -2.508389
H   0.717018   -1.408768   -2.518592
H   -1.453734   -2.753962   -3.572257
H   -1.634451   -1.195583   -2.773963
H   -2.846449   -2.171403   -1.081326
H   -2.646552   -3.772711   -1.784316
H   -1.414606   -3.027157   0.612983
H   -0.713824   -4.232609   -0.482610
C   -1.058319   0.246864   1.154555
O   -1.136472   -0.162042   -0.092835
C   -1.675587   1.608043   1.450269
C   -1.774356   2.084293   2.760256
C   -2.410000   3.283398   3.038167
C   -2.957999   3.993578   1.985001
N   -3.658267   5.267349   2.266678
O   -3.697403   5.636739   3.421095
O   -4.143080   5.857010   1.324934
C   -2.890714   3.552043   0.677862
C   -2.239323   2.354561   0.416463
H   -1.353787   -0.471197   1.929838
H   -1.362741   1.507751   3.581130
H   -2.506611   3.665102   4.046222
H   -3.361722   4.134908   -0.101639
H   -2.189020   1.972921   -0.593316

