%chk=product.chk
#p opt freq B3LYP/6-31G(d) scrf=(iefpcm,solvent=acetone) Temperature=303.15

Converted from XYZ file

1 1
C   -0.751546   4.891261   0.615258
C   -0.575752   3.509865   1.147426
C   -1.283277   3.166549   2.411338
N   0.181482   2.667620   0.533042
C   0.983221   3.037015   -0.660724
C   2.173434   2.097145   -0.587980
C   1.551828   0.809976   -0.064612
C   0.509442   1.262247   0.964551
C   -0.677449   0.292281   1.106073
N   -1.804921   0.513142   0.218844
H   -2.647517   2.062079   0.490027
C   -1.568121   0.260400   -1.209761
C   -2.975232   0.203378   -1.810109
C   -3.886559   -0.205524   -0.630031
C   -2.925617   -0.392143   0.541073
H   0.165756   5.464821   0.781441
H   -1.564961   5.390897   1.133112
H   -0.963836   4.881550   -0.452611
H   -1.053046   3.949541   3.137137
H   -0.940216   2.221992   2.820472
H   0.376106   2.865456   -1.551672
H   1.252324   4.087664   -0.617893
H   2.655028   1.977492   -1.555283
H   2.912513   2.488135   0.112865
H   1.066599   0.267100   -0.875008
H   2.274676   0.138546   0.394174
H   0.989924   1.350288   1.941183
H   -1.063781   0.316372   2.125607
H   -0.256334   -0.715927   0.967481
H   -1.048054   -0.700335   -1.338754
H   -0.952250   1.041832   -1.655015
H   -3.017449   -0.502474   -2.636662
H   -3.264633   1.178728   -2.198471
H   -4.603059   0.584194   -0.409387
H   -4.448425   -1.114956   -0.829256
H   -3.357012   -0.133828   1.509247
H   -2.564648   -1.428480   0.595690
C   -2.823730   3.131018   2.118582
O   -3.046324   2.931898   0.743832
C   -3.532884   4.389822   2.570392
C   -3.442000   4.784137   3.903823
C   -4.093220   5.918611   4.351269
C   -4.836124   6.648481   3.440917
N   -5.534664   7.865420   3.908462
O   -5.416181   8.157720   5.078882
O   -6.175945   8.487079   3.089530
C   -4.954771   6.278676   2.117157
C   -4.298448   5.135298   1.682886
H   -3.232894   2.296553   2.700721
H   -2.869238   4.194485   4.610862
H   -4.040626   6.239608   5.380957
H   -5.555165   6.876722   1.447667
H   -4.386882   4.816139   0.654674

