%chk=reactant.chk
#p opt freq B3LYP/6-31G(d) scrf=(iefpcm,solvent=acetone) Temperature=303.15

Converted from XYZ file

1 1
C   -0.351863   4.332098   1.964468
C   -0.031307   2.863388   1.947691
C   -0.105138   2.133207   3.070503
N   0.291885   2.332157   0.701151
C   0.897762   3.162702   -0.358811
C   2.044482   2.311049   -0.890883
C   1.510243   0.893144   -0.731236
C   0.767293   0.954527   0.606742
C   -0.360671   -0.081533   0.749491
N   -1.686716   0.423602   0.306937
H   -1.878619   1.323092   0.780125
C   -1.856310   0.656958   -1.161373
C   -3.363957   0.787195   -1.339828
C   -3.981741   -0.081176   -0.221167
C   -2.808887   -0.505073   0.665537
H   0.552174   4.934546   1.869437
H   -0.818996   4.601926   2.909537
H   -1.019371   4.606034   1.145268
H   -0.386677   2.613646   3.995685
H   0.177075   1.093501   3.132638
H   0.166465   3.376674   -1.145229
H   1.242438   4.114995   0.033500
H   2.311935   2.558607   -1.916069
H   2.928447   2.450299   -0.266476
H   0.827689   0.651007   -1.548519
H   2.288784   0.132219   -0.719122
H   1.478693   0.751645   1.417816
H   -0.491505   -0.389160   1.784476
H   -0.137046   -0.971806   0.159754
H   -1.453424   -0.220293   -1.669436
H   -1.292082   1.538167   -1.452107
H   -3.662926   0.464675   -2.334217
H   -3.662500   1.825992   -1.218753
H   -4.709377   0.490534   0.348869
H   -4.487031   -0.959626   -0.615634
H   -2.994713   -0.424715   1.734252
H   -2.466058   -1.514800   0.440328
C   -3.369173   3.219036   2.272479
O   -3.169081   2.643861   1.219993
C   -3.999377   4.542294   2.381072
C   -4.166432   5.103171   3.643464
C   -4.731822   6.361185   3.773654
C   -5.113773   7.020410   2.622008
N   -5.709669   8.374325   2.750292
O   -5.824696   8.822681   3.868937
O   -6.034498   8.932264   1.725748
C   -4.965010   6.484950   1.352643
C   -4.399250   5.230937   1.236076
H   -3.056948   2.756220   3.223552
H   -3.852012   4.557421   4.525045
H   -4.878528   6.830740   4.734553
H   -5.287403   7.052932   0.492931
H   -4.261237   4.773734   0.265636

