%chk=knarr_saddle.chk
# B3LYP/6-31G(d) Opt=(TS,CalcAll,MaxStep=5) Freq SCRF=(IEFPCM,Solvent=Acetone) Temperature=303.15

Converted from XYZ file

1 1
C   0.671811   -1.701130   -0.730812
C   1.600746   -0.881552   0.095808
C   1.536155   -1.066393   1.525320
N   2.258653   0.125167   -0.399246
C   3.324565   0.851107   0.344301
C   4.050151   1.683565   -0.721139
C   3.572582   1.101966   -2.056381
C   2.135173   0.685576   -1.759229
C   1.215702   1.909790   -1.749337
N   -0.177456   1.614193   -1.376567
H   -0.177618   1.086463   -0.287828
C   -0.968798   2.859864   -1.132361
C   -2.432196   2.418756   -1.253327
C   -2.392680   1.066614   -2.000676
C   -0.946586   0.929231   -2.451173
H   1.033297   -1.864113   -1.742513
H   0.491161   -2.663890   -0.256582
H   -0.290756   -1.183743   -0.766238
H   1.344842   -2.099783   1.801377
H   2.384432   -0.682973   2.083170
H   2.892973   1.457334   1.139245
H   3.977764   0.101416   0.787299
H   3.784185   2.736250   -0.637216
H   5.129326   1.618475   -0.607913
H   4.151464   0.217312   -2.322030
H   3.640693   1.808798   -2.881263
H   1.764604   -0.073853   -2.442898
H   1.592125   2.648069   -1.041534
H   1.227307   2.365429   -2.744764
H   -0.700781   3.244336   -0.151375
H   -0.700296   3.590481   -1.899138
H   -2.887117   2.309958   -0.271133
H   -3.004997   3.164361   -1.799969
H   -3.076236   1.030128   -2.845772
H   -2.655126   0.243448   -1.336902
H   -0.612896   -0.095879   -2.589828
H   -0.769466   1.475459   -3.382996
C   0.126329   -0.070152   1.896452
O   -0.121349   0.918193   1.020754
C   -1.009740   -1.050308   2.145629
C   -0.834921   -2.030446   3.120319
C   -1.778225   -3.016768   3.322579
C   -2.924548   -2.995472   2.547831
N   -3.916621   -4.076509   2.724240
O   -4.907639   -4.044928   2.025364
O   -3.668723   -4.928222   3.550318
C   -3.171271   -1.997524   1.627139
C   -2.205688   -1.014235   1.434270
H   0.489871   0.316186   2.857653
H   0.068806   -2.025812   3.718621
H   -1.635064   -3.799843   4.050800
H   -4.103707   -2.007872   1.080132
H   -2.394216   -0.206525   0.739521

