%chk=product.chk
#p opt freq B3LYP/6-31G(d) scrf=(iefpcm,solvent=acetone) Temperature=303.15

Converted from XYZ file

1 1
C   0.888992   -1.733828   5.727555
C   1.707843   -0.702726   6.423258
C   1.692752   -0.700667   7.911960
N   2.331988   0.230941   5.794446
C   3.264308   1.204736   6.436636
C   3.934906   1.943660   5.272377
C   3.560846   1.136935   4.023341
C   2.184534   0.580059   4.361396
C   1.096584   1.654220   4.248825
N   -0.222682   1.206922   4.657570
H   -0.049292   1.042372   6.735834
C   -1.150158   2.351752   4.809832
C   -2.556567   1.743306   4.708113
C   -2.335754   0.335688   4.116909
C   -0.888483   0.367968   3.648214
H   1.214497   -1.920180   4.708677
H   0.925967   -2.661647   6.295706
H   -0.155655   -1.410385   5.710467
H   1.720609   -1.719288   8.291953
H   2.533465   -0.153652   8.326108
H   2.693412   1.856308   7.095637
H   3.982340   0.638907   7.026724
H   3.563785   2.964316   5.204803
H   5.011077   2.000362   5.413756
H   4.262010   0.317084   3.864293
H   3.541609   1.741703   3.118837
H   1.925637   -0.302271   3.783657
H   1.376486   2.504603   4.875566
H   1.093008   2.011598   3.207923
H   -0.961233   2.870417   5.751057
H   -0.987634   3.069380   3.995091
H   -3.049395   1.697961   5.677895
H   -3.186606   2.354170   4.064926
H   -3.022489   0.103745   3.305798
H   -2.461516   -0.430393   4.883507
H   -0.434168   -0.619770   3.575094
H   -0.811575   0.845031   2.659264
C   0.375132   0.019845   8.366997
O   0.218684   1.226398   7.658833
C   -0.845788   -0.882179   8.308221
C   -0.817245   -2.150608   8.887562
C   -1.922853   -2.980277   8.832254
C   -3.059585   -2.521354   8.192043
N   -4.238154   -3.410858   8.103664
O   -5.205862   -2.989365   7.507740
O   -4.150459   -4.500271   8.626274
C   -3.134173   -1.259999   7.639429
C   -2.017622   -0.438913   7.708098
H   0.537596   0.305951   9.407860
H   0.067856   -2.501655   9.404145
H   -1.918433   -3.965163   9.275492
H   -4.052745   -0.933585   7.172675
H   -2.069778   0.562680   7.305478

