%chk=reactant.chk
#p opt freq B3LYP/6-31G(d) scrf=(iefpcm,solvent=acetone) Temperature=303.15

Converted from XYZ file

1 1
C   0.505396   -1.583303   5.117806
C   1.477024   -0.972955   6.087089
C   1.699072   -1.568270   7.267705
N   2.076237   0.241965   5.740754
C   3.294482   0.621510   6.479350
C   4.105115   1.492157   5.520777
C   3.642466   1.012317   4.144875
C   2.151204   0.751022   4.368326
C   1.393386   2.074341   4.235749
N   -0.057063   1.938172   4.519583
H   -0.176782   1.349553   5.363454
C   -0.749026   3.234176   4.827705
C   -2.241026   2.938056   4.642491
C   -2.303828   1.610904   3.852535
C   -0.871856   1.361834   3.404711
H   0.959399   -1.810250   4.151733
H   0.126453   -2.515634   5.528760
H   -0.354283   -0.928414   4.952374
H   1.206850   -2.502724   7.490879
H   2.367525   -1.171104   8.016901
H   3.053053   1.130445   7.414104
H   3.849318   -0.286722   6.730742
H   3.887367   2.551994   5.660773
H   5.174638   1.363808   5.671107
H   4.132251   0.073579   3.883856
H   3.835649   1.726948   3.344821
H   1.756871   0.029081   3.655318
H   1.788785   2.795107   4.950812
H   1.493638   2.489190   3.231575
H   -0.470521   3.544940   5.831600
H   -0.378536   3.965900   4.110424
H   -2.738238   2.837085   5.603761
H   -2.719934   3.753795   4.105992
H   -2.976415   1.657890   2.999813
H   -2.636119   0.801880   4.500800
H   -0.612795   0.318638   3.248610
H   -0.617147   1.932090   2.510205
C   -0.869363   0.131446   7.814118
O   -1.136111   0.703064   6.771734
C   -1.543370   -1.095717   8.266500
C   -1.180081   -1.652974   9.488296
C   -1.776078   -2.825671   9.920542
C   -2.723892   -3.410012   9.102174
N   -3.359204   -4.675374   9.546433
O   -4.169085   -5.177765   8.798653
O   -3.020300   -5.115499   10.622128
C   -3.108115   -2.876361   7.883577
C   -2.509820   -1.702902   7.467278
H   -0.096401   0.532933   8.486852
H   -0.422525   -1.173799   10.096454
H   -1.519480   -3.289606   10.861078
H   -3.857006   -3.381482   7.292385
H   -2.781775   -1.249280   6.523709

