%chk=knarr_saddle.chk
# B3LYP/6-31G(d) Opt=(TS,CalcAll,MaxStep=5) Freq SCRF=(IEFPCM,Solvent=Acetone) Temperature=303.15

Converted from XYZ file

1 1
C   -0.078825   -0.747390   -3.927519
C   0.195099   -0.744466   -2.451554
C   -0.294629   0.270439   -1.636973
N   0.966506   -1.745553   -2.000401
C   1.471960   -2.871381   -2.804352
C   2.422510   -3.582306   -1.847678
C   1.769809   -3.354649   -0.485939
C   1.264984   -1.915595   -0.582585
C   2.240881   -0.851528   -0.058838
N   1.782361   -0.295387   1.200650
H   -0.414425   -0.748369   1.162692
C   1.961545   -1.172530   2.361725
C   1.702564   -0.240667   3.543670
C   2.203805   1.136481   3.053203
C   2.513818   0.926553   1.567382
H   0.853279   -0.557471   -4.466210
H   -0.784125   0.033217   -4.194976
H   -0.458448   -1.709106   -4.273644
H   -0.794778   1.087508   -2.138285
H   0.215831   0.506522   -0.715066
H   1.966678   -2.519410   -3.707734
H   0.646459   -3.526941   -3.096681
H   3.408049   -3.114368   -1.879571
H   2.542339   -4.635497   -2.090848
H   0.928753   -4.037437   -0.352159
H   2.451603   -3.489263   0.352176
H   0.316303   -1.813311   -0.041248
H   2.303726   -0.038276   -0.783287
H   3.252931   -1.277455   0.031953
H   2.988492   -1.569052   2.390776
H   1.280192   -2.027543   2.326621
H   0.636046   -0.199733   3.765879
H   2.210348   -0.579376   4.443858
H   1.444227   1.903606   3.196493
H   3.092473   1.461987   3.590474
H   2.210498   1.758383   0.929696
H   3.593126   0.773746   1.420830
C   -1.955226   0.037395   0.282582
O   -1.116065   -0.074229   1.258341
C   -2.676801   1.288488   0.285982
C   -3.991426   1.379082   -0.179060
C   -4.692897   2.560690   -0.006139
C   -4.048937   3.625854   0.596692
N   -4.796738   4.894029   0.797723
O   -5.949533   4.918070   0.422967
O   -4.199714   5.805328   1.322782
C   -2.736497   3.575667   1.033653
C   -2.052305   2.389700   0.886285
H   -2.278899   -0.831667   -0.276925
H   -4.477167   0.522799   -0.629355
H   -5.722168   2.667979   -0.315686
H   -2.285330   4.445723   1.485285
H   -1.032264   2.300712   1.232344

