%chk=product.chk
#p opt freq B3LYP/6-31G(d) scrf=(iefpcm,solvent=acetone) Temperature=303.15

Converted from XYZ file

1 1
C   -1.436462   0.274131   -4.955800
C   -1.052150   0.402239   -3.521646
C   -1.548456   1.577268   -2.746405
N   -0.305403   -0.488896   -2.976244
C   0.231968   -1.671368   -3.694437
C   1.212008   -2.279443   -2.702002
C   0.569106   -1.951006   -1.356669
C   0.093743   -0.511484   -1.532030
C   1.151603   0.565801   -1.215512
N   0.647476   1.490175   -0.223546
H   -3.904957   -0.030262   -1.274372
C   0.546224   0.921141   1.122595
C   0.327683   2.142758   2.020069
C   0.916615   3.324961   1.215058
C   1.485753   2.677416   -0.046264
H   -0.581935   0.541250   -5.584731
H   -2.250798   0.953335   -5.193776
H   -1.728204   -0.744877   -5.208054
H   -1.494590   2.459187   -3.388821
H   -0.951992   1.756608   -1.851589
H   0.681517   -1.359483   -4.635073
H   -0.597939   -2.348341   -3.906291
H   2.187891   -1.799043   -2.791658
H   1.344654   -3.345345   -2.869567
H   -0.284158   -2.607293   -1.175889
H   1.253388   -2.043782   -0.516026
H   -0.805445   -0.305505   -0.957587
H   1.395305   1.131204   -2.118515
H   2.084785   0.081180   -0.883534
H   1.484346   0.407171   1.389160
H   -0.263022   0.190468   1.188841
H   -0.733737   2.294757   2.215047
H   0.813281   2.012483   2.984905
H   0.135156   4.037184   0.952186
H   1.680786   3.867115   1.767507
H   1.433404   3.319051   -0.927578
H   2.538226   2.389810   0.104384
C   -3.013884   1.363126   -2.332491
O   -3.037279   0.099756   -1.674567
C   -3.484789   2.489939   -1.444268
C   -4.521247   3.318631   -1.853547
C   -4.954571   4.356512   -1.040416
C   -4.334289   4.532608   0.179127
N   -4.788802   5.635291   1.056558
O   -5.667128   6.354106   0.634249
O   -4.247821   5.741888   2.136178
C   -3.303157   3.719898   0.617491
C   -2.877202   2.694449   -0.206275
H   -3.647432   1.326413   -3.225618
H   -5.000237   3.156295   -2.811632
H   -5.757741   5.015898   -1.334026
H   -2.855474   3.902869   1.583670
H   -2.062822   2.052916   0.109811

