%chk=reactant.chk
#p opt freq B3LYP/6-31G(d) scrf=(iefpcm,solvent=acetone) Temperature=303.15

Converted from XYZ file

1 1
C   -0.876290   0.792827   -5.334683
C   -0.770560   0.761360   -3.837235
C   -1.383567   1.685739   -3.079197
N   0.028969   -0.244816   -3.322094
C   0.376142   -1.453244   -4.071600
C   1.270231   -2.199842   -3.095922
C   0.603452   -1.908745   -1.751643
C   0.124671   -0.454633   -1.889960
C   1.083750   0.588835   -1.302789
N   0.758134   0.935629   0.108976
H   -0.248672   1.163142   0.160966
C   1.009419   -0.120017   1.137947
C   0.845321   0.639254   2.446496
C   1.379504   2.058065   2.146396
C   1.502906   2.133358   0.619857
H   0.109639   0.897275   -5.790840
H   -1.490686   1.632281   -5.647520
H   -1.323935   -0.123734   -5.722026
H   -1.960882   2.464487   -3.554064
H   -1.323689   1.709257   -2.001912
H   0.884191   -1.203033   -5.000618
H   -0.514099   -2.045514   -4.315887
H   2.278937   -1.782033   -3.123693
H   1.339116   -3.262982   -3.315132
H   -0.256907   -2.565341   -1.613531
H   1.272954   -2.057747   -0.904922
H   -0.862102   -0.321396   -1.420195
H   1.002421   1.510607   -1.877553
H   2.119708   0.246528   -1.329239
H   2.029687   -0.475685   0.987088
H   0.313690   -0.944123   0.999802
H   -0.209298   0.678849   2.717429
H   1.377365   0.149355   3.258208
H   0.698504   2.817285   2.523319
H   2.349466   2.229511   2.607387
H   1.071113   3.023963   0.169765
H   2.533087   2.029811   0.280970
C   -3.055810   1.789420   0.165813
O   -1.870648   1.847908   0.441214
C   -3.869659   2.945333   -0.221879
C   -5.212027   2.742344   -0.527905
C   -6.003599   3.811034   -0.914765
C   -5.416514   5.058945   -0.980896
N   -6.255620   6.211381   -1.397815
O   -7.412920   5.981646   -1.668220
O   -5.719831   7.296723   -1.437158
C   -4.083854   5.291897   -0.679950
C   -3.304792   4.218917   -0.297134
H   -3.580756   0.820304   0.189356
H   -5.638279   1.748573   -0.465753
H   -7.047840   3.694549   -1.162092
H   -3.688133   6.293937   -0.750076
H   -2.259615   4.353709   -0.054701

