%chk=knarr_saddle.chk
# B3LYP/6-31G(d) Opt=(TS,CalcAll,MaxStep=5) Freq SCRF=(IEFPCM,Solvent=Acetone) Temperature=303.15

Converted from XYZ file

1 1
C   2.178229   1.580899   -0.728132
C   1.537571   0.222995   -0.734378
C   1.382710   -0.499134   0.581722
N   1.234081   -0.272181   -1.909166
C   1.681824   0.316402   -3.220000
C   1.776663   -0.861633   -4.203589
C   1.297521   -2.100879   -3.430519
C   0.590765   -1.586654   -2.168122
C   -0.921587   -1.476767   -2.405356
N   -1.749105   -1.105013   -1.259162
H   -1.191325   -0.585652   0.008128
C   -2.767907   -0.073735   -1.577693
C   -3.875286   -0.221674   -0.526944
C   -3.608757   -1.569645   0.174733
C   -2.499379   -2.228656   -0.644587
H   3.144205   1.585283   -1.245683
H   1.539869   2.289569   -1.258469
H   2.343960   1.930602   0.284871
H   1.514939   -1.565115   0.431461
H   2.163260   -0.117188   1.228772
H   2.645320   0.800239   -3.088436
H   0.978696   1.074469   -3.568399
H   1.178135   -0.678825   -5.095170
H   2.801919   -0.995674   -4.546253
H   0.627865   -2.714197   -4.032003
H   2.142012   -2.726668   -3.152212
H   0.789548   -2.224044   -1.312451
H   -1.103577   -0.769998   -3.219465
H   -1.243555   -2.459448   -2.762512
H   -3.152783   -0.265917   -2.581952
H   -2.299240   0.912091   -1.569531
H   -3.855716   0.596657   0.189808
H   -4.848492   -0.207732   -1.013717
H   -3.283695   -1.398242   1.197323
H   -4.492953   -2.202411   0.205852
H   -2.911929   -2.856534   -1.438499
H   -1.826701   -2.834173   -0.034144
C   0.000699   -0.422186   1.679965
O   -1.151674   -0.165790   1.003109
C   0.293724   0.589161   2.783229
C   0.960672   0.230813   3.958567
C   1.456887   1.206531   4.818364
C   1.239124   2.534128   4.504217
N   1.784800   3.592855   5.389172
O   2.387914   3.240192   6.379017
O   1.589730   4.744135   5.061030
C   0.512324   2.916836   3.392092
C   0.018217   1.933487   2.551672
H   0.034976   -1.434460   2.107747
H   1.116559   -0.809343   4.221487
H   2.034759   0.962405   5.700185
H   0.379440   3.968438   3.185168
H   -0.575254   2.201378   1.688853

