%chk=product.chk
#p opt freq B3LYP/6-31G(d) scrf=(iefpcm,solvent=acetone) Temperature=303.15

Converted from XYZ file

1 1
C   4.884523   -0.640015   1.926074
C   4.089031   -1.840384   1.545206
C   3.416180   -2.612650   2.628213
N   4.002313   -2.163185   0.298985
C   4.690097   -1.382225   -0.767519
C   4.472234   -2.178481   -2.049970
C   4.194651   -3.591316   -1.539781
C   3.325526   -3.353915   -0.306187
C   1.878101   -3.046200   -0.700657
N   0.933117   -3.052041   0.399581
H   1.280155   -1.788961   1.618422
C   -0.381894   -2.513727   -0.001925
C   -1.304657   -2.911129   1.149398
C   -0.642672   -4.168690   1.759096
C   0.608671   -4.393102   0.908919
H   5.858789   -0.643007   1.436779
H   4.353378   0.261020   1.607241
H   5.020675   -0.589128   3.001193
H   2.974484   -3.528534   2.248147
H   4.165083   -2.873322   3.379092
H   5.747798   -1.322750   -0.512993
H   4.285014   -0.371847   -0.793190
H   3.623341   -1.790305   -2.610991
H   5.344172   -2.128161   -2.697066
H   3.695292   -4.223239   -2.270441
H   5.124418   -4.082586   -1.249030
H   3.373922   -4.186086   0.391067
H   1.837074   -2.065284   -1.180073
H   1.586953   -3.785806   -1.461918
H   -0.703781   -2.979259   -0.943711
H   -0.317441   -1.436280   -0.158851
H   -1.359967   -2.111026   1.885790
H   -2.315208   -3.101900   0.796019
H   -0.373985   -3.996006   2.800960
H   -1.293089   -5.040161   1.735047
H   0.394344   -5.066476   0.066279
H   1.436558   -4.824841   1.473776
C   2.286837   -1.749565   3.272018
O   1.573301   -1.093985   2.257404
C   2.794935   -0.739144   4.276885
C   3.502624   -1.175235   5.395220
C   4.000570   -0.268159   6.313463
C   3.771738   1.078294   6.094599
N   4.319816   2.059176   7.056558
O   4.944842   1.622914   7.999072
O   4.111452   3.231805   6.832510
C   3.048367   1.538816   5.013227
C   2.554733   0.617519   4.100987
H   1.643507   -2.456719   3.811384
H   3.663665   -2.234099   5.563982
H   4.553541   -0.583355   7.185736
H   2.881106   2.599325   4.896097
H   1.980569   0.950433   3.248671

