%chk=reactant.chk
#p opt freq B3LYP/6-31G(d) scrf=(iefpcm,solvent=acetone) Temperature=303.15

Converted from XYZ file

1 1
C   4.271003   0.459646   -0.337649
C   3.964130   -0.905691   0.214983
C   4.059065   -1.124344   1.537626
N   3.517286   -1.847483   -0.705545
C   3.912547   -1.798954   -2.122512
C   4.705404   -3.083805   -2.316677
C   3.904964   -4.084443   -1.486714
C   3.358606   -3.245455   -0.309145
C   1.908208   -3.637955   -0.053635
N   1.204796   -2.827349   0.985370
H   1.835378   -2.727994   1.792699
C   0.752120   -1.447543   0.549158
C   -0.623158   -1.235169   1.197808
C   -0.770613   -2.387705   2.196133
C   -0.020885   -3.513241   1.516003
H   5.210369   0.464113   -0.892320
H   3.485046   0.802574   -1.012679
H   4.367195   1.172909   0.476533
H   3.899622   -2.083600   2.008165
H   4.383599   -0.319095   2.179442
H   4.480496   -0.903297   -2.346719
H   3.022619   -1.795834   -2.760087
H   4.794631   -3.376881   -3.361096
H   5.709022   -2.960536   -1.905807
H   3.079357   -4.483987   -2.081874
H   4.495846   -4.928822   -1.138030
H   3.948951   -3.442887   0.588450
H   1.317413   -3.549614   -0.966699
H   1.873522   -4.675900   0.280115
H   0.721112   -1.437885   -0.536782
H   1.508584   -0.740848   0.877974
H   -0.694833   -0.259519   1.672845
H   -1.406379   -1.291312   0.442520
H   -0.292755   -2.150495   3.149317
H   -1.807468   -2.646659   2.396595
H   -0.568626   -3.905582   0.658096
H   0.290610   -4.328484   2.163273
C   2.876868   -3.459327   4.538061
O   2.397015   -3.577555   3.427159
C   3.047682   -2.178282   5.241343
C   3.658829   -2.176215   6.491238
C   3.843835   -0.983106   7.172199
C   3.406074   0.179476   6.570598
N   3.601560   1.464674   7.287494
O   4.106941   1.412580   8.385379
O   3.240367   2.471905   6.719322
C   2.792675   0.209098   5.328424
C   2.613596   -0.985811   4.662778
H   3.220065   -4.354198   5.081585
H   3.992668   -3.107374   6.932272
H   4.314051   -0.941504   8.143177
H   2.475810   1.153959   4.912873
H   2.149990   -1.002179   3.685751

