%chk=knarr_saddle.chk
# B3LYP/6-31G(d) Opt=(TS,CalcAll,MaxStep=5) Freq SCRF=(IEFPCM,Solvent=Acetone) Temperature=303.15

Converted from XYZ file

1 1
C   -1.470532   2.525172   -0.230059
C   -1.195689   1.418552   0.733896
C   -0.118930   1.587514   1.631797
N   -1.755974   0.237661   0.598241
C   -1.625601   -0.816468   1.635874
C   -2.649769   -1.883655   1.241859
C   -3.589256   -1.160261   0.271656
C   -2.651190   -0.217456   -0.480269
C   -1.886485   -0.993264   -1.556941
N   -0.852755   -0.208314   -2.252850
H   -0.180539   0.240152   -1.492736
C   -1.356013   0.784222   -3.235237
C   -0.090242   1.214408   -3.968260
C   0.818743   -0.038515   -3.939865
C   0.073900   -1.052574   -3.068657
H   -2.489603   2.525420   -0.607796
H   -0.774258   2.440564   -1.070358
H   -1.278127   3.478826   0.254437
H   -0.034295   0.894061   2.456393
H   0.111531   2.611804   1.900705
H   -1.863202   -0.365080   2.600078
H   -0.602801   -1.190417   1.672298
H   -2.161648   -2.728893   0.758088
H   -3.174087   -2.273058   2.110763
H   -4.322860   -0.568288   0.819895
H   -4.126256   -1.833932   -0.392615
H   -3.172914   0.630835   -0.916004
H   -1.383296   -1.848594   -1.105235
H   -2.601783   -1.369718   -2.295791
H   -2.055379   0.266160   -3.900127
H   -1.882581   1.592349   -2.737084
H   0.387900   2.044081   -3.446346
H   -0.318703   1.550681   -4.976504
H   0.992002   -0.443662   -4.933975
H   1.785472   0.200914   -3.502495
H   0.717110   -1.609617   -2.393133
H   -0.529173   -1.746389   -3.661864
C   1.260461   1.087156   0.436933
O   0.859967   0.338989   -0.545996
C   2.189898   0.419671   1.406732
C   2.894512   1.161632   2.345855
C   3.655137   0.524635   3.311028
C   3.694367   -0.860643   3.303833
N   4.445665   -1.555138   4.364623
O   5.013981   -0.864675   5.186026
O   4.431489   -2.767722   4.354455
C   3.044683   -1.621712   2.351275
C   2.292286   -0.967661   1.390510
H   1.565451   2.111134   0.194031
H   2.841803   2.245612   2.331648
H   4.203750   1.072081   4.062624
H   3.130520   -2.698039   2.370541
H   1.783315   -1.520543   0.614101

