%chk=product.chk
#p opt freq B3LYP/6-31G(d) scrf=(iefpcm,solvent=acetone) Temperature=303.15

Converted from XYZ file

1 1
C   3.690635   3.167196   3.127885
C   3.822561   1.877868   3.862822
C   4.983874   1.748911   4.780985
N   3.060078   0.864760   3.644158
C   3.085145   -0.392550   4.448045
C   1.854571   -1.183655   3.988325
C   1.037691   -0.196178   3.144503
C   2.099129   0.704614   2.526700
C   2.823612   0.002402   1.370333
N   3.990561   0.711757   0.881901
H   5.366400   0.637066   2.300462
C   3.680824   1.825031   -0.028020
C   5.038529   2.175905   -0.633637
C   5.820844   0.841261   -0.604445
C   4.855740   -0.148549   0.047630
H   2.707821   3.325941   2.697380
H   4.430311   3.196650   2.323989
H   3.916186   3.985552   3.809917
H   4.869542   0.942449   5.499466
H   5.161900   2.679699   5.318223
H   3.025827   -0.117090   5.498869
H   4.028123   -0.905348   4.267307
H   2.154906   -2.047207   3.398347
H   1.290073   -1.555702   4.839318
H   0.371323   0.395750   3.772451
H   0.433319   -0.688870   2.385081
H   1.715046   1.673083   2.219767
H   3.148114   -0.983833   1.709482
H   2.084691   -0.161247   0.572535
H   2.986083   1.478971   -0.807266
H   3.205733   2.657391   0.489694
H   5.544133   2.933400   -0.033068
H   4.932113   2.581088   -1.637265
H   6.114831   0.509665   -1.597564
H   6.728995   0.935708   -0.010265
H   5.349771   -0.904740   0.658708
H   4.249496   -0.661540   -0.711459
C   6.227951   1.425401   3.882069
O   5.945751   0.339778   3.032679
C   7.394375   1.093010   4.778681
C   8.175012   2.117498   5.301968
C   9.218700   1.833216   6.167017
C   9.458454   0.511892   6.491686
N   10.571274   0.196337   7.414486
O   11.225899   1.126513   7.832574
O   10.749254   -0.970343   7.690216
C   8.703599   -0.526923   5.981972
C   7.662948   -0.228067   5.117838
H   6.473912   2.320722   3.299534
H   7.981915   3.147489   5.024271
H   9.845281   2.609266   6.580526
H   8.937911   -1.543553   6.260328
H   7.071726   -1.024654   4.687926

