%chk=reactant.chk
#p opt freq B3LYP/6-31G(d) scrf=(iefpcm,solvent=acetone) Temperature=303.15

Converted from XYZ file

1 1
C   3.474866   3.387912   2.792904
C   3.930631   2.578071   3.973071
C   4.451028   3.204057   5.038379
N   3.857979   1.182750   3.892826
C   3.971512   0.448351   5.165981
C   3.311445   -0.898287   4.910701
C   2.227933   -0.538812   3.895890
C   2.943227   0.468932   2.989557
C   3.703133   -0.310101   1.912386
N   4.485016   0.557167   0.996079
H   5.039371   1.219458   1.568609
C   3.682260   1.317315   -0.013621
C   4.749948   1.889663   -0.932660
C   5.854595   0.808512   -0.961617
C   5.481551   -0.179503   0.148886
H   2.431029   3.205802   2.532299
H   4.097039   3.199335   1.915293
H   3.569814   4.444744   3.027323
H   4.803443   2.686650   5.917242
H   4.501274   4.282432   5.045614
H   3.428850   0.996734   5.943209
H   5.011637   0.364697   5.482095
H   4.022310   -1.615332   4.494083
H   2.910425   -1.333214   5.823124
H   1.395563   -0.042605   4.396376
H   1.830252   -1.394754   3.350756
H   2.236830   1.150919   2.518437
H   4.412624   -0.989335   2.385880
H   3.017044   -0.894745   1.297216
H   3.051185   0.584588   -0.519124
H   3.053297   2.052851   0.476342
H   5.138437   2.818598   -0.515827
H   4.344989   2.109529   -1.917126
H   5.897418   0.294033   -1.918757
H   6.831074   1.249281   -0.776743
H   6.315767   -0.488778   0.772803
H   4.974081   -1.064990   -0.233407
C   6.950967   2.452711   3.174775
O   6.487585   2.206817   2.077138
C   7.282183   1.422642   4.178244
C   7.651918   1.818810   5.458737
C   7.925740   0.868338   6.429582
C   7.833296   -0.464518   6.078461
N   8.107176   -1.492049   7.113418
O   8.432495   -1.098242   8.210044
O   7.976799   -2.651429   6.785399
C   7.495869   -0.890105   4.804157
C   7.216829   0.070117   3.851379
H   7.166132   3.492649   3.461837
H   7.707158   2.872728   5.701519
H   8.204534   1.140071   7.436792
H   7.463475   -1.947666   4.587309
H   6.961466   -0.219607   2.841789

