%chk=knarr_saddle.chk
# B3LYP/6-31G(d) Opt=(TS,CalcAll,MaxStep=5) Freq SCRF=(IEFPCM,Solvent=Acetone) Temperature=303.15

Converted from XYZ file

1 1
C   1.621202   0.785164   -1.762456
C   1.474429   1.074504   -0.305190
C   0.544576   2.035907   0.089134
N   2.080337   0.284950   0.571645
C   2.067495   0.558126   2.022481
C   2.802726   -0.621202   2.646877
C   3.716133   -1.116867   1.526707
C   2.958154   -0.840512   0.220312
C   2.225823   -2.043301   -0.421722
N   0.776008   -2.208895   -0.166747
H   0.146667   -1.256083   -0.240776
C   0.422951   -2.874683   1.116186
C   -1.027829   -3.303680   0.920367
C   -1.174232   -3.528938   -0.601896
C   0.167963   -3.110556   -1.196538
H   1.216373   -0.200070   -1.996709
H   1.056954   1.509000   -2.341619
H   2.666874   0.814591   -2.073102
H   0.268301   2.758853   -0.662106
H   0.562202   2.420246   1.099298
H   1.044040   0.653795   2.383374
H   2.582176   1.504229   2.206781
H   3.358836   -0.321692   3.532051
H   2.103990   -1.395891   2.958271
H   4.637481   -0.534207   1.521884
H   3.995734   -2.163675   1.629754
H   3.671602   -0.505451   -0.534293
H   2.716492   -2.965899   -0.108207
H   2.338033   -1.982157   -1.501798
H   0.568987   -2.193645   1.949650
H   1.090605   -3.732276   1.229807
H   -1.246729   -4.196153   1.501776
H   -1.699190   -2.513428   1.252390
H   -1.388367   -4.566194   -0.848233
H   -1.975771   -2.913377   -1.002856
H   0.091779   -2.569552   -2.137976
H   0.843427   -3.958418   -1.322676
C   -1.007318   0.774062   0.160144
O   -0.823770   -0.286437   -0.536869
C   -2.049033   1.749910   -0.278280
C   -2.525306   2.697837   0.621221
C   -3.423954   3.664070   0.208593
C   -3.827913   3.662301   -1.113479
N   -4.736780   4.734249   -1.579686
O   -5.082482   5.561478   -0.762569
O   -5.063161   4.717619   -2.745596
C   -3.407118   2.703445   -2.016261
C   -2.510453   1.737229   -1.589848
H   -0.926890   0.685151   1.250967
H   -2.183999   2.688483   1.650166
H   -3.800131   4.417271   0.882577
H   -3.774922   2.736181   -3.030500
H   -2.163004   0.974586   -2.274426

