%chk=product.chk
#p opt freq B3LYP/6-31G(d) scrf=(iefpcm,solvent=acetone) Temperature=303.15

Converted from XYZ file

1 1
C   -1.322365   1.263847   -3.147130
C   -1.701158   1.602729   -1.746084
C   -2.833535   2.541125   -1.517952
N   -1.095897   1.049293   -0.755193
C   -1.287480   1.400711   0.678350
C   -0.438755   0.377745   1.425506
C   0.653370   0.024029   0.417333
C   -0.097411   -0.031712   -0.909383
C   -0.776267   -1.408699   -1.201582
N   -2.224199   -1.411007   -1.380951
H   -3.553249   -0.016297   -2.188657
C   -2.979109   -1.596736   -0.128740
C   -4.377692   -2.033294   -0.577103
C   -4.166192   -2.620082   -1.991081
C   -2.656461   -2.562861   -2.200833
H   -1.191262   0.193056   -3.285536
H   -2.078353   1.621820   -3.837645
H   -0.373522   1.759849   -3.378747
H   -2.932466   3.206398   -2.374237
H   -2.713718   3.141371   -0.616701
H   -2.343025   1.372845   0.937138
H   -0.917489   2.416190   0.824141
H   -0.044930   0.788100   2.351968
H   -1.030697   -0.503437   1.674557
H   1.409353   0.810485   0.383020
H   1.156736   -0.915224   0.636782
H   0.553280   0.230320   -1.740479
H   -0.496037   -2.103475   -0.397969
H   -0.326022   -1.799830   -2.114508
H   -2.992076   -0.684282   0.468692
H   -2.504835   -2.382012   0.477856
H   -4.793862   -2.760426   0.116735
H   -5.064198   -1.187982   -0.610735
H   -4.540045   -3.637154   -2.079988
H   -4.681318   -2.016013   -2.736998
H   -2.361708   -2.419442   -3.240705
H   -2.180385   -3.483224   -1.835210
C   -4.131729   1.675440   -1.408411
O   -4.165237   0.704617   -2.430006
C   -5.341705   2.568885   -1.502417
C   -5.859833   3.150175   -0.351123
C   -6.947605   4.004676   -0.423461
C   -7.497696   4.257892   -1.664876
N   -8.661801   5.167462   -1.752850
O   -9.073269   5.643498   -0.716904
O   -9.121805   5.374604   -2.854427
C   -7.008216   3.689298   -2.825570
C   -5.918495   2.838722   -2.738516
H   -4.132917   1.189177   -0.425146
H   -5.426114   2.924398   0.616670
H   -7.375029   4.462167   0.456228
H   -7.480671   3.913292   -3.770390
H   -5.529478   2.366925   -3.630408

