%chk=reactant.chk
#p opt freq B3LYP/6-31G(d) scrf=(iefpcm,solvent=acetone) Temperature=303.15

Converted from XYZ file

1 1
C   -2.150263   1.877929   -2.657978
C   -1.940012   2.114768   -1.189861
C   -2.269451   3.288843   -0.641143
N   -1.470597   1.028148   -0.428233
C   -1.136125   1.310558   0.969021
C   -0.474611   0.038634   1.462180
C   0.295385   -0.444155   0.231581
C   -0.483971   0.089168   -0.990896
C   -1.140835   -0.997659   -1.856375
N   -2.437810   -1.475814   -1.308434
H   -2.923531   -0.652744   -0.907289
C   -2.376774   -2.535255   -0.254726
C   -3.829034   -2.966174   -0.126901
C   -4.389373   -2.865581   -1.562435
C   -3.346992   -2.064480   -2.349542
H   -2.879036   1.079210   -2.826008
H   -2.536771   2.781512   -3.122615
H   -1.223886   1.614526   -3.171854
H   -2.675324   4.070517   -1.266399
H   -2.133633   3.517848   0.404850
H   -2.036938   1.566977   1.527728
H   -0.447638   2.162479   1.034508
H   0.176439   0.216983   2.315221
H   -1.231686   -0.678304   1.782363
H   1.294607   -0.010644   0.231447
H   0.423760   -1.526289   0.199780
H   0.214573   0.605352   -1.657355
H   -0.479655   -1.857792   -1.965331
H   -1.354645   -0.612353   -2.849723
H   -1.937486   -2.135742   0.652590
H   -1.740938   -3.331948   -0.643421
H   -3.910498   -3.966583   0.290827
H   -4.359223   -2.282858   0.536018
H   -4.524606   -3.846823   -2.011472
H   -5.351033   -2.359743   -1.568031
H   -3.758786   -1.251905   -2.941945
H   -2.727260   -2.697963   -2.983750
C   -4.907276   1.396828   -0.516960
O   -4.584258   0.320686   -0.982631
C   -5.606927   2.448679   -1.272025
C   -5.914129   3.642050   -0.626366
C   -6.549765   4.660251   -1.316002
C   -6.858553   4.446638   -2.645792
N   -7.531204   5.535460   -3.396947
O   -7.780528   6.552686   -2.789577
O   -7.779275   5.328661   -4.564310
C   -6.570287   3.268069   -3.313465
C   -5.937690   2.259233   -2.612377
H   -4.686155   1.635838   0.535868
H   -5.646859   3.776527   0.414829
H   -6.803531   5.600138   -0.849332
H   -6.844820   3.164036   -4.352672
H   -5.699675   1.319530   -3.092325

