%chk=knarr_saddle.chk
# B3LYP/6-31G(d) Opt=(TS,CalcAll,MaxStep=5) Freq SCRF=(IEFPCM,Solvent=Acetone) Temperature=303.15

Converted from XYZ file

1 1
C   -2.097951   0.797999   0.594459
C   -1.274792   -0.295167   1.176981
C   -0.211927   0.101195   2.042656
N   -1.376242   -1.531168   0.753048
C   -0.808219   -2.697704   1.474933
C   -1.518464   -3.917363   0.867008
C   -2.681758   -3.326684   0.061268
C   -2.124987   -1.992952   -0.427376
C   -1.171079   -2.190657   -1.607762
N   -0.512088   -0.965763   -2.091748
H   0.071073   -0.254317   -1.171535
C   0.592012   -1.292749   -3.039161
C   0.789851   -0.019840   -3.844087
C   -0.626394   0.559469   -3.985416
C   -1.444417   -0.070264   -2.847028
H   -1.514563   1.249240   -0.213483
H   -3.060679   0.467012   0.217969
H   -2.253313   1.570932   1.343857
H   0.233537   -0.668099   2.665886
H   -0.401171   1.021208   2.586906
H   -1.036080   -2.574466   2.532315
H   0.274514   -2.745753   1.363806
H   -0.842999   -4.476518   0.221361
H   -1.861190   -4.602761   1.637952
H   -3.016322   -3.971077   -0.749845
H   -3.536508   -3.131514   0.709912
H   -2.904094   -1.281346   -0.684522
H   -0.392472   -2.904885   -1.334776
H   -1.739293   -2.633013   -2.434208
H   0.282510   -2.127379   -3.674225
H   1.469531   -1.593625   -2.468092
H   1.437006   0.669397   -3.304416
H   1.249848   -0.228848   -4.807843
H   -0.623436   1.644670   -3.919637
H   -1.066446   0.293733   -4.944851
H   -2.269236   -0.671944   -3.236356
H   -1.859525   0.671294   -2.169880
C   1.090703   0.450190   0.737244
O   0.624603   0.617615   -0.499181
C   1.792065   1.629714   1.364080
C   2.608872   1.405026   2.471905
C   3.162682   2.460995   3.171835
C   2.894326   3.747006   2.737174
N   3.451331   4.884966   3.500996
O   4.125316   4.621714   4.478559
O   3.192956   6.001754   3.107558
C   2.124473   4.004164   1.618999
C   1.574498   2.933279   0.925991
H   1.653651   -0.477040   0.892940
H   2.807801   0.390239   2.798482
H   3.784751   2.311104   4.041989
H   1.962473   5.028539   1.313877
H   0.975266   3.110443   0.043485

