%chk=product.chk
#p opt freq B3LYP/6-31G(d) scrf=(iefpcm,solvent=acetone) Temperature=303.15

Converted from XYZ file

1 1
C   -1.093006   2.004915   1.512877
C   -0.152973   1.116079   2.241751
C   0.902865   1.796981   3.045102
N   -0.173280   -0.168832   2.151742
C   0.604504   -1.083405   3.033858
C   0.082969   -2.489820   2.712069
C   -1.163732   -2.267374   1.846192
C   -0.869919   -0.965372   1.114247
C   0.115819   -1.166642   -0.044914
N   0.593460   0.067856   -0.641094
H   1.479745   1.513743   0.376914
C   1.825508   -0.143024   -1.432161
C   1.954826   1.128733   -2.276395
C   0.523839   1.713521   -2.319809
C   -0.330743   0.658474   -1.623498
H   -0.511919   2.679047   0.880774
H   -1.846610   1.494552   0.926793
H   -1.584910   2.629436   2.262752
H   1.116771   1.294094   3.987667
H   0.597515   2.820108   3.257017
H   0.411217   -0.793803   4.064843
H   1.669517   -0.975383   2.838245
H   0.836481   -3.060670   2.173265
H   -0.146647   -3.038212   3.621904
H   -1.345547   -3.088519   1.155752
H   -2.052777   -2.148457   2.465648
H   -1.768993   -0.454937   0.783783
H   0.981736   -1.718938   0.329277
H   -0.374193   -1.811735   -0.788644
H   1.709943   -1.027177   -2.073156
H   2.675437   -0.314142   -0.769292
H   2.646815   1.832153   -1.816903
H   2.334612   0.895840   -3.268463
H   0.480450   2.656790   -1.774419
H   0.175943   1.905808   -3.332100
H   -0.655624   -0.114207   -2.335539
H   -1.220805   1.068858   -1.147478
C   2.201303   1.834015   2.170271
O   1.910571   2.250773   0.858275
C   3.197032   2.771719   2.804570
C   4.009713   2.314765   3.836096
C   4.909382   3.167315   4.452616
C   4.973412   4.476507   4.015621
N   5.938401   5.393575   4.661604
O   6.632047   4.936828   5.544504
O   5.968621   6.537687   4.263887
C   4.179295   4.958407   2.993057
C   3.283473   4.093608   2.384605
H   2.634365   0.826737   2.157680
H   3.957512   1.279340   4.154025
H   5.559085   2.835613   5.248447
H   4.274315   5.988892   2.684265
H   2.663985   4.440667   1.569558

