%chk=reactant.chk
#p opt freq B3LYP/6-31G(d) scrf=(iefpcm,solvent=acetone) Temperature=303.15

Converted from XYZ file

1 1
C   -0.121160   1.858934   2.452957
C   0.502502   0.566290   2.894628
C   1.242732   0.523915   4.010997
N   0.303681   -0.563174   2.093527
C   0.431544   -1.881740   2.742887
C   -0.535766   -2.807230   2.000764
C   -1.560333   -1.841885   1.401718
C   -0.698077   -0.633855   1.028824
C   -0.021419   -0.902063   -0.316957
N   0.941036   0.165819   -0.698105
H   1.476644   0.434540   0.143186
C   1.960192   -0.298920   -1.714828
C   2.204139   0.912685   -2.594001
C   0.805735   1.517973   -2.692791
C   0.301943   1.422096   -1.259044
H   0.193992   2.138875   1.445583
H   -1.211755   1.810315   2.466070
H   0.183251   2.655765   3.126982
H   1.718190   -0.377326   4.369843
H   1.358569   1.417713   4.605575
H   0.140347   -1.779772   3.791410
H   1.460731   -2.243881   2.719882
H   -0.025851   -3.371717   1.219089
H   -0.987764   -3.533197   2.672804
H   -2.107820   -2.256622   0.554973
H   -2.286742   -1.539060   2.156585
H   -1.280533   0.284359   0.972762
H   0.549457   -1.828241   -0.255945
H   -0.749216   -0.995789   -1.124555
H   1.505610   -1.111418   -2.280791
H   2.830891   -0.670850   -1.180555
H   2.890935   1.605263   -2.105240
H   2.623465   0.631112   -3.557114
H   0.800277   2.546117   -3.047385
H   0.180250   0.926825   -3.364434
H   -0.778045   1.347281   -1.157999
H   0.663863   2.256224   -0.662770
C   3.316158   1.611811   1.910454
O   2.729588   1.558650   0.843959
C   3.532576   2.858255   2.660708
C   4.249822   2.810646   3.851621
C   4.462611   3.969366   4.579476
C   3.940216   5.149131   4.085750
N   4.161070   6.397155   4.857764
O   4.803323   6.307706   5.879979
O   3.681857   7.415081   4.408975
C   3.220405   5.226635   2.905019
C   3.019207   4.064240   2.186799
H   3.736542   0.700351   2.361063
H   4.638943   1.865680   4.210704
H   5.015857   3.972861   5.506423
H   2.838872   6.180958   2.574266
H   2.468255   4.078903   1.256198

