%chk=knarr_saddle.chk
# B3LYP/6-31G(d) Opt=(TS,CalcAll,MaxStep=5) Freq SCRF=(IEFPCM,Solvent=Acetone) Temperature=303.15

Converted from XYZ file

1 1
C   1.514562   1.345064   1.848508
C   0.972834   -0.022546   1.555264
C   1.798631   -0.881868   0.813449
N   -0.284076   -0.350765   1.791929
C   -0.711095   -1.684017   2.259479
C   -1.370068   -1.359643   3.627799
C   -1.621469   0.168734   3.619430
C   -1.424580   0.509163   2.149494
C   -1.390752   1.953065   1.715834
N   -1.259909   2.083026   0.250062
H   -0.407763   1.332291   -0.249094
C   -2.477160   1.651303   -0.491909
C   -2.281956   2.253326   -1.876676
C   -1.501729   3.562036   -1.627080
C   -1.090464   3.504003   -0.153083
H   1.175426   2.091871   1.129704
H   2.599097   1.314397   1.792108
H   1.227355   1.666719   2.847127
H   1.507960   -1.914311   0.673053
H   2.865847   -0.717833   0.886930
H   0.140282   -2.351800   2.335400
H   -1.433050   -2.107651   1.560784
H   -0.712965   -1.644370   4.445881
H   -2.299326   -1.911844   3.748334
H   -0.882154   0.696196   4.224988
H   -2.610296   0.439884   3.982740
H   -2.265095   0.056154   1.611061
H   -0.605870   2.527725   2.195931
H   -2.342391   2.406077   2.003246
H   -3.346168   2.069373   0.021910
H   -2.540338   0.565424   -0.501323
H   -1.698395   1.571782   -2.492130
H   -3.239047   2.415962   -2.366021
H   -0.635130   3.631918   -2.280154
H   -2.114567   4.442291   -1.805270
H   -0.071001   3.835159   0.043012
H   -1.768204   4.091750   0.468824
C   1.357580   -0.025129   -0.851191
O   0.120506   0.387419   -0.918487
C   1.668732   -1.180400   -1.754935
C   0.678141   -2.143584   -1.926952
C   0.941389   -3.301808   -2.625374
C   2.197126   -3.460083   -3.184901
N   2.494162   -4.727419   -3.887153
O   3.588240   -4.845790   -4.392646
O   1.621191   -5.569505   -3.895204
C   3.173579   -2.489244   -3.096983
C   2.903805   -1.340714   -2.364502
H   2.143871   0.735367   -0.769514
H   -0.297001   -1.977235   -1.492422
H   0.208529   -4.086132   -2.734829
H   4.124308   -2.642930   -3.582848
H   3.658867   -0.570859   -2.281599

