%chk=product.chk
#p opt freq B3LYP/6-31G(d) scrf=(iefpcm,solvent=acetone) Temperature=303.15

Converted from XYZ file

1 1
C   6.522336   4.637525   1.267892
C   5.935537   3.263973   1.269670
C   6.656689   2.247027   0.465063
N   4.797288   2.968449   1.792629
C   4.383750   1.606316   2.212262
C   3.596348   1.868155   3.519957
C   3.409174   3.399894   3.607425
C   3.635796   3.824173   2.168486
C   3.638712   5.276603   1.752365
N   3.706442   5.400994   0.299140
H   4.697362   3.740290   -0.890174
C   2.460082   5.031802   -0.396821
C   2.641431   5.606376   -1.805305
C   3.662020   6.754060   -1.630454
C   3.927107   6.791415   -0.128240
H   6.033792   5.267635   0.525388
H   7.579935   4.567255   1.024399
H   6.419216   5.105145   2.243784
H   6.279324   1.237012   0.593708
H   7.732379   2.266328   0.634950
H   5.259459   0.985664   2.367598
H   3.765003   1.168006   1.429610
H   4.136043   1.477116   4.378911
H   2.633572   1.363513   3.479082
H   4.148626   3.860505   4.264347
H   2.419371   3.678298   3.962235
H   2.836676   3.355807   1.581773
H   4.448248   5.843103   2.209341
H   2.704379   5.709107   2.142188
H   1.598245   5.493337   0.107795
H   2.307591   3.951948   -0.406919
H   3.022913   4.846540   -2.486462
H   1.691487   5.951119   -2.207570
H   4.580943   6.537457   -2.175420
H   3.287726   7.708820   -1.992791
H   4.932995   7.127229   0.132042
H   3.214807   7.459058   0.378143
C   6.354227   2.684673   -1.017729
O   4.964738   2.857529   -1.199606
C   6.874803   1.618495   -1.946519
C   6.049020   0.581900   -2.365013
C   6.551240   -0.418999   -3.180452
C   7.878738   -0.358888   -3.559386
N   8.419927   -1.427936   -4.428052
O   9.584436   -1.342592   -4.752168
O   7.662360   -2.316342   -4.752709
C   8.719927   0.663527   -3.164402
C   8.204227   1.658051   -2.350775
H   6.889183   3.617785   -1.218889
H   5.008599   0.568891   -2.071331
H   5.933650   -1.234977   -3.525200
H   9.746623   0.674260   -3.498666
H   8.843587   2.477789   -2.043821

