%chk=reactant.chk
#p opt freq B3LYP/6-31G(d) scrf=(iefpcm,solvent=acetone) Temperature=303.15

Converted from XYZ file

1 1
C   6.532288   4.313084   2.066154
C   6.144441   2.944935   1.569574
C   7.106181   2.052042   1.330383
N   4.772030   2.628114   1.308604
C   4.353264   1.318294   1.861771
C   3.915561   1.618081   3.312696
C   3.517514   3.112729   3.298364
C   3.664359   3.460424   1.812688
C   3.647757   4.925730   1.431538
N   3.898563   5.093308   -0.028128
H   4.798671   4.646122   -0.267170
C   2.876157   4.468510   -0.928849
C   3.169517   5.122145   -2.265880
C   3.456360   6.583802   -1.894537
C   4.008152   6.534808   -0.461955
H   6.352894   5.095508   1.325208
H   7.600530   4.318737   2.267278
H   6.020622   4.582336   2.990499
H   6.913111   1.062370   0.942296
H   8.136219   2.306558   1.530506
H   5.150315   0.588348   1.801980
H   3.513445   0.949952   1.269288
H   4.743628   1.446353   3.998303
H   3.095187   0.973065   3.622023
H   4.192452   3.709912   3.912568
H   2.503433   3.286891   3.657009
H   2.784709   3.025747   1.323689
H   4.376762   5.529495   1.961657
H   2.657533   5.336952   1.635306
H   1.891605   4.740029   -0.544391
H   2.993253   3.387887   -0.909425
H   4.046454   4.655804   -2.716174
H   2.337544   5.017734   -2.958028
H   4.162699   7.048026   -2.577985
H   2.539295   7.170481   -1.918173
H   5.054214   6.819594   -0.385118
H   3.422703   7.132329   0.233741
C   7.235892   4.009198   -1.817538
O   6.389346   4.643840   -1.218207
C   7.099921   2.603581   -2.226061
C   6.005014   1.843171   -1.814456
C   5.896794   0.526664   -2.213580
C   6.893051   0.000634   -3.021244
N   6.777263   -1.417437   -3.445483
O   7.648267   -1.852154   -4.163888
O   5.818301   -2.037147   -3.039122
C   7.989189   0.726362   -3.441261
C   8.089416   2.046547   -3.029387
H   8.181456   4.500115   -2.099596
H   5.269742   2.275838   -1.147322
H   5.071191   -0.100585   -1.911811
H   8.735230   0.260196   -4.067161
H   8.938602   2.645164   -3.335892

