%chk=knarr_saddle.chk
# B3LYP/6-31G(d) Opt=(TS,CalcAll,MaxStep=5) Freq SCRF=(IEFPCM,Solvent=Acetone) Temperature=303.15

Converted from XYZ file

1 1
C   -1.398646   2.113266   -1.098340
C   -1.421084   0.981233   -0.123645
C   -0.738617   1.143758   1.096193
N   -1.974967   -0.156648   -0.524918
C   -2.697313   -0.245605   -1.820405
C   -3.451706   -1.569065   -1.762618
C   -3.643916   -1.791750   -0.262411
C   -2.303424   -1.328903   0.322795
C   -1.305829   -2.481948   0.184000
N   -0.034155   -2.334467   0.911161
H   0.494402   -1.361768   0.609349
C   0.980654   -3.356933   0.488765
C   1.880830   -3.578260   1.713759
C   1.326899   -2.639233   2.799817
C   -0.123107   -2.429744   2.392697
H   -0.764921   1.853024   -1.950913
H   -2.394863   2.333884   -1.482024
H   -0.998026   3.007838   -0.633245
H   -0.907677   0.411803   1.877840
H   -0.681939   2.162613   1.457433
H   -2.005743   -0.170570   -2.658161
H   -3.401591   0.583369   -1.881139
H   -2.866469   -2.373640   -2.208357
H   -4.394200   -1.517606   -2.302674
H   -4.454412   -1.172463   0.123750
H   -3.867707   -2.826484   -0.006716
H   -2.401454   -1.006692   1.359699
H   -1.790090   -3.397684   0.536243
H   -1.066968   -2.626979   -0.870592
H   1.501945   -2.943338   -0.373295
H   0.460080   -4.264778   0.185859
H   2.920989   -3.360009   1.485153
H   1.824782   -4.616998   2.035840
H   1.852456   -1.683518   2.780566
H   1.412358   -3.054853   3.802045
H   -0.577557   -1.529980   2.806094
H   -0.746848   -3.288296   2.659570
C   1.156941   0.789034   0.653682
O   1.236804   -0.355042   0.072813
C   1.700979   1.981912   -0.090556
C   1.786931   3.222298   0.538291
C   2.355983   4.305487   -0.107105
C   2.849074   4.119342   -1.386802
N   3.514073   5.252349   -2.066545
O   3.557075   6.307288   -1.468700
O   3.982763   5.047348   -3.164967
C   2.788325   2.902018   -2.035410
C   2.203674   1.828211   -1.379727
H   1.397955   0.840331   1.726212
H   1.418044   3.340754   1.550593
H   2.436748   5.274301   0.361977
H   3.207873   2.808450   -3.026220
H   2.164591   0.853345   -1.846712

