%chk=product.chk
#p opt freq B3LYP/6-31G(d) scrf=(iefpcm,solvent=acetone) Temperature=303.15

Converted from XYZ file

1 1
C   0.605012   2.736924   -2.708598
C   0.448688   1.706331   -1.644444
C   1.228143   1.870844   -0.384887
N   -0.340328   0.706671   -1.853417
C   -1.120124   0.567134   -3.115881
C   -2.027582   -0.638015   -2.893690
C   -2.122549   -0.725165   -1.371475
C   -0.701593   -0.401489   -0.913695
C   0.221785   -1.612214   -1.079911
N   1.518387   -1.480363   -0.443684
H   2.502491   -0.148886   -1.126246
C   2.439158   -2.563634   -0.842194
C   3.585719   -2.457752   0.163353
C   2.951624   -1.788476   1.404957
C   1.485331   -1.587716   1.022625
H   1.189141   2.316434   -3.531899
H   -0.361791   3.042244   -3.108368
H   1.132101   3.607427   -2.332150
H   0.946082   1.131816   0.358327
H   1.020776   2.864822   0.017464
H   -0.433892   0.464030   -3.954939
H   -1.701355   1.478020   -3.255651
H   -1.586659   -1.542119   -3.311238
H   -2.994520   -0.494771   -3.369167
H   -2.816227   0.024472   -0.987827
H   -2.449430   -1.699166   -1.015180
H   -0.678056   -0.027750   0.106401
H   -0.316060   -2.485240   -0.680132
H   0.382366   -1.799116   -2.144288
H   2.752759   -2.431479   -1.878380
H   1.930505   -3.534029   -0.758909
H   4.388808   -1.841531   -0.237458
H   4.003817   -3.436534   0.386213
H   3.428401   -0.830386   1.611286
H   3.043888   -2.394090   2.303700
H   1.040145   -0.705331   1.485511
H   0.880645   -2.458233   1.316193
C   2.753440   1.718435   -0.676064
O   2.951227   0.629285   -1.538333
C   3.386344   2.960248   -1.264224
C   3.344127   4.158098   -0.553506
C   3.890695   5.313237   -1.083408
C   4.484962   5.244661   -2.330528
N   5.052708   6.477814   -2.917528
O   4.963632   7.495519   -2.265006
O   5.562426   6.386845   -4.013215
C   4.570617   4.066694   -3.044533
C   4.017679   2.916456   -2.500667
H   3.224496   1.538919   0.299165
H   2.888736   4.196990   0.429674
H   3.866419   6.252872   -0.551902
H   5.062069   4.060504   -4.006203
H   4.075585   1.979873   -3.035804

