%chk=reactant.chk
#p opt freq B3LYP/6-31G(d) scrf=(iefpcm,solvent=acetone) Temperature=303.15

Converted from XYZ file

1 1
C   0.131495   2.898642   -1.557957
C   -0.187513   1.648005   -0.785001
C   -0.211720   1.668415   0.554265
N   -0.407925   0.524645   -1.586769
C   -1.070922   0.727735   -2.894731
C   -1.611554   -0.645744   -3.261978
C   -1.966963   -1.236451   -1.899209
C   -0.812845   -0.759493   -1.010698
C   0.330305   -1.768315   -1.107198
N   1.578655   -1.329707   -0.420901
H   1.783554   -0.357328   -0.706084
C   2.792053   -2.157506   -0.814675
C   3.249554   -2.841631   0.464710
C   2.866273   -1.834403   1.544647
C   1.496089   -1.362242   1.088886
H   0.897904   2.712621   -2.312254
H   -0.749430   3.274363   -2.079619
H   0.473143   3.682043   -0.884879
H   -0.514354   0.833062   1.166560
H   0.000362   2.592552   1.071462
H   -0.374300   1.120539   -3.634015
H   -1.898266   1.436980   -2.793977
H   -0.848181   -1.244177   -3.762763
H   -2.465025   -0.580470   -3.932797
H   -2.901148   -0.808476   -1.534263
H   -2.076357   -2.320818   -1.905803
H   -1.136805   -0.647601   0.023960
H   0.047195   -2.733404   -0.683688
H   0.586966   -1.910017   -2.156306
H   3.534825   -1.457802   -1.190893
H   2.509043   -2.839803   -1.611270
H   4.314228   -3.062098   0.437393
H   2.715810   -3.782056   0.612730
H   3.570996   -1.001230   1.562455
H   2.826432   -2.264884   2.542743
H   1.214858   -0.376358   1.443261
H   0.718949   -2.078633   1.355053
C   3.164609   2.106551   -0.778797
O   3.005169   0.964562   -1.163554
C   3.783509   3.170237   -1.582757
C   3.916096   4.436503   -1.021975
C   4.471036   5.468453   -1.760756
C   4.873764   5.193329   -3.052481
N   5.459863   6.293785   -3.858513
O   5.556835   7.376833   -3.326395
O   5.796338   6.027857   -4.990999
C   4.755396   3.942580   -3.636924
C   4.204226   2.921040   -2.888990
H   2.821076   2.404833   0.226056
H   3.584033   4.615894   -0.006533
H   4.590750   6.463547   -1.359946
H   5.091511   3.795898   -4.652263
H   4.091174   1.929290   -3.305328

