%chk=knarr_saddle.chk
# B3LYP/6-31G(d) Opt=(TS,CalcAll,MaxStep=5) Freq SCRF=(IEFPCM,Solvent=Acetone) Temperature=303.15

Converted from XYZ file

1 1
C   -2.358076   1.907381   0.988077
C   -0.983799   1.318296   1.000621
C   -0.847263   -0.114858   1.290709
N   0.014949   2.121333   0.731247
C   -0.102678   3.604630   0.622507
C   1.276026   4.104209   1.035743
C   2.206370   3.039330   0.474102
C   1.451268   1.724518   0.701767
C   1.820582   0.607421   -0.270197
N   1.183031   0.586475   -1.607263
H   0.276927   -0.182705   -1.410759
C   0.742307   1.834568   -2.263508
C   0.483116   1.419361   -3.705630
C   1.521999   0.314258   -3.981945
C   2.086519   -0.053132   -2.606825
H   -3.107433   1.128748   1.084732
H   -2.524121   2.457965   0.061113
H   -2.492021   2.611455   1.813555
H   0.141468   -0.389464   1.655334
H   -1.603904   -0.372035   2.032990
H   -0.895652   3.967192   1.268339
H   -0.337502   3.895784   -0.405059
H   1.484898   5.100679   0.650782
H   1.349212   4.141177   2.123235
H   2.385775   3.215059   -0.585254
H   3.178782   3.012541   0.961964
H   1.692149   1.355018   1.701844
H   1.600387   -0.367958   0.165004
H   2.899895   0.665883   -0.406975
H   -0.136175   2.245550   -1.770219
H   1.563371   2.545011   -2.214251
H   0.587996   2.276756   -4.367210
H   -0.529390   1.033973   -3.816265
H   2.329835   0.671547   -4.618108
H   1.069081   -0.540908   -4.476499
H   3.065372   0.402384   -2.459227
H   2.153636   -1.122121   -2.408209
C   -1.247817   -1.217323   -0.001757
O   -0.364610   -1.211464   -1.004924
C   -1.357360   -2.571872   0.707969
C   -0.251340   -3.416991   0.787062
C   -0.295516   -4.573446   1.552501
C   -1.467278   -4.888400   2.214006
N   -1.500714   -6.090725   3.081425
O   -0.476090   -6.730901   3.185951
O   -2.545192   -6.351071   3.639402
C   -2.605846   -4.116594   2.091408
C   -2.543304   -2.960158   1.327741
H   -2.253085   -0.862100   -0.284750
H   0.649240   -3.169483   0.241363
H   0.559211   -5.225013   1.659916
H   -3.508400   -4.419364   2.599185
H   -3.438839   -2.360415   1.213240

