%chk=product.chk
#p opt freq B3LYP/6-31G(d) scrf=(iefpcm,solvent=acetone) Temperature=303.15

Converted from XYZ file

1 1
C   -4.821508   0.684315   3.958817
C   -3.372987   0.323257   4.021590
C   -3.040162   -1.095087   4.332006
N   -2.486232   1.249881   3.897609
C   -2.838924   2.693568   3.856560
C   -1.612071   3.367723   4.446544
C   -0.472144   2.520586   3.900020
C   -0.993009   1.080202   3.949803
C   -0.384404   0.167559   2.871976
N   -1.090397   0.102137   1.605462
H   -2.396389   -1.181307   1.907106
C   -1.202228   1.344785   0.833144
C   -1.663283   0.867181   -0.544514
C   -1.089455   -0.562960   -0.665002
C   -0.385427   -0.800070   0.668975
H   -5.436617   -0.206934   3.889045
H   -5.038855   1.339525   3.116116
H   -5.102883   1.210120   4.875604
H   -1.983051   -1.250339   4.535567
H   -3.595581   -1.315487   5.251085
H   -3.746872   2.867453   4.425214
H   -3.011185   2.987802   2.820379
H   -1.548437   4.413863   4.156995
H   -1.648362   3.318814   5.536157
H   -0.249973   2.801804   2.870805
H   0.447757   2.613854   4.473381
H   -0.769512   0.652791   4.929554
H   -0.311367   -0.856215   3.242648
H   0.650101   0.520144   2.734837
H   -1.902015   2.042855   1.290803
H   -0.221637   1.839119   0.763759
H   -1.311893   1.531816   -1.330790
H   -2.751557   0.850125   -0.594305
H   -0.397039   -0.663743   -1.497667
H   -1.885998   -1.290483   -0.810868
H   0.672479   -0.509141   0.610948
H   -0.439601   -1.829798   1.019131
C   -3.503659   -2.117995   3.258201
O   -2.668809   -2.096106   2.137591
C   -3.486497   -3.500681   3.869684
C   -2.309151   -4.238575   3.893059
C   -2.279497   -5.484231   4.497699
C   -3.441726   -5.969949   5.066582
N   -3.416619   -7.302097   5.709362
O   -2.356915   -7.890074   5.726884
O   -4.456932   -7.712823   6.176455
C   -4.628874   -5.263992   5.049563
C   -4.641490   -4.018677   4.443036
H   -4.539111   -1.888076   2.977586
H   -1.421385   -3.845765   3.416021
H   -1.380632   -6.081655   4.529128
H   -5.514869   -5.693428   5.492803
H   -5.567751   -3.456656   4.402645

