%chk=reactant.chk
#p opt freq B3LYP/6-31G(d) scrf=(iefpcm,solvent=acetone) Temperature=303.15

Converted from XYZ file

1 1
C   -4.636312   1.370240   4.309183
C   -3.304940   0.680367   4.432557
C   -3.193538   -0.489360   5.079857
N   -2.250600   1.329549   3.798140
C   -2.186090   2.798515   3.732888
C   -0.706744   3.111195   3.937830
C   -0.017683   1.904017   3.310411
C   -0.916488   0.747875   3.756830
C   -0.844588   -0.536119   2.938770
N   -1.108675   -0.453100   1.459620
H   -1.519651   -1.367982   1.242510
C   -2.141129   0.512022   0.941741
C   -1.927796   0.407891   -0.556367
C   -0.398592   0.421079   -0.686801
C   0.109490   -0.278366   0.582177
H   -5.436321   0.694806   4.602002
H   -4.813538   1.709118   3.286381
H   -4.694077   2.246054   4.956815
H   -2.252283   -0.986774   5.265558
H   -4.074073   -0.937124   5.516573
H   -2.807456   3.256926   4.498548
H   -2.537265   3.165165   2.760938
H   -0.410338   4.058500   3.492596
H   -0.481105   3.151432   5.004429
H   -0.015189   2.010994   2.222855
H   1.013398   1.768664   3.634189
H   -0.602117   0.436617   4.765503
H   -1.579125   -1.240713   3.318903
H   0.143442   -0.985126   3.046407
H   -3.117104   0.203847   1.305671
H   -1.910693   1.503637   1.315378
H   -2.403642   1.224966   -1.093590
H   -2.347001   -0.528817   -0.929513
H   -0.032063   1.446903   -0.716801
H   -0.051952   -0.079117   -1.587548
H   0.840768   0.308635   1.130386
H   0.527500   -1.266346   0.400476
C   -3.900116   -2.835864   2.371631
O   -2.951346   -2.498442   1.691072
C   -3.838565   -3.834518   3.448758
C   -2.653032   -4.515548   3.722343
C   -2.613925   -5.440598   4.746690
C   -3.772108   -5.661298   5.474856
N   -3.731768   -6.656447   6.575905
O   -2.672683   -7.206852   6.781735
O   -4.758944   -6.843979   7.188317
C   -4.961275   -5.005284   5.225239
C   -4.987124   -4.081047   4.193564
H   -4.891060   -2.384484   2.197730
H   -1.775252   -4.321759   3.120652
H   -1.718552   -5.993289   4.989042
H   -5.832517   -5.223194   5.824532
H   -5.902793   -3.548521   3.967225

