%chk=knarr_saddle.chk
# B3LYP/6-31G(d) Opt=(TS,CalcAll,MaxStep=5) Freq SCRF=(IEFPCM,Solvent=Acetone) Temperature=303.15

Converted from XYZ file

1 1
C   -3.098178   -0.360811   -1.127514
C   -1.833367   0.316580   -0.666174
C   -0.612637   0.150173   -1.408454
N   -1.948211   1.087296   0.405385
C   -3.219750   1.596550   0.967958
C   -2.904386   3.051940   1.354824
C   -1.363899   3.161830   1.387879
C   -0.835847   1.749629   1.102063
C   -0.480995   1.043228   2.416810
N   -0.101282   -0.373044   2.278019
H   0.565172   -0.515470   1.212078
C   0.860590   -0.829058   3.320074
C   0.833152   -2.355362   3.214973
C   -0.520053   -2.688683   2.544741
C   -1.217724   -1.340032   2.388859
H   -3.720111   -0.698397   -0.296273
H   -3.704309   0.335272   -1.717397
H   -2.874271   -1.209727   -1.767650
H   -0.817298   -0.252769   -2.396300
H   0.003139   1.044042   -1.434727
H   -4.011801   1.534297   0.229168
H   -3.518036   1.004290   1.837001
H   -3.316027   3.735874   0.614040
H   -3.359021   3.310995   2.309583
H   -0.998638   3.529199   2.346404
H   -1.011425   3.853752   0.626390
H   0.037526   1.745088   0.455668
H   0.371355   1.581690   2.832006
H   -1.298759   1.128619   3.141307
H   1.837588   -0.392991   3.116995
H   0.512173   -0.482855   4.295847
H   0.930676   -2.815862   4.195541
H   1.661247   -2.708748   2.604418
H   -0.361867   -3.149105   1.570153
H   -1.124902   -3.375800   3.132797
H   -1.868350   -1.277529   1.519740
H   -1.799723   -1.089098   3.281700
C   0.964622   -0.932904   -0.866091
O   1.370157   -0.499116   0.292617
C   1.906979   -0.727687   -2.029993
C   2.834914   0.315032   -2.040579
C   3.657994   0.517095   -3.139841
C   3.555072   -0.348286   -4.215346
N   4.409346   -0.124719   -5.406727
O   4.282961   -0.896536   -6.333924
O   5.171946   0.816124   -5.373077
C   2.682119   -1.417568   -4.218345
C   1.859837   -1.601471   -3.115658
H   0.480910   -1.914090   -0.906081
H   2.925849   0.965577   -1.180254
H   4.368895   1.330241   -3.183245
H   2.654587   -2.079678   -5.072101
H   1.182059   -2.447016   -3.099287

