%chk=product.chk
#p opt freq B3LYP/6-31G(d) scrf=(iefpcm,solvent=acetone) Temperature=303.15

Converted from XYZ file

1 1
C   -0.016035   -2.299142   -2.122098
C   0.965175   -1.370058   -1.488732
C   2.303800   -1.279346   -2.140569
N   0.605950   -0.666435   -0.470700
C   -0.801054   -0.519618   -0.013295
C   -0.844825   0.866498   0.655731
C   0.562854   1.459644   0.463607
C   1.453943   0.230012   0.348297
C   1.709895   -0.398356   1.727701
N   2.305702   -1.723455   1.680446
H   3.369140   -1.832606   0.293888
C   3.267116   -1.975773   2.771739
C   3.550885   -3.472198   2.660618
C   2.279034   -4.059399   2.004738
C   1.367524   -2.850120   1.786766
H   -0.751685   -2.690267   -1.424212
H   -0.539765   -1.770690   -2.925337
H   0.521193   -3.125551   -2.584823
H   2.127968   -1.479003   -3.199252
H   2.739026   -0.285015   -2.051551
H   -1.457961   -0.587748   -0.875702
H   -1.044832   -1.329636   0.674407
H   -1.611028   1.490869   0.203654
H   -1.090402   0.768441   1.710646
H   0.863346   2.102492   1.288906
H   0.617766   2.044914   -0.454584
H   2.401841   0.393381   -0.157027
H   2.396869   0.282439   2.233526
H   0.785147   -0.404655   2.320568
H   4.151844   -1.352957   2.642325
H   2.809214   -1.731228   3.739547
H   3.756869   -3.910107   3.634367
H   4.420981   -3.645031   2.029632
H   2.522762   -4.530017   1.052384
H   1.795278   -4.812017   2.623446
H   0.747879   -2.944267   0.893303
H   0.698774   -2.701191   2.647453
C   3.373475   -2.289808   -1.615844
O   3.994933   -1.787164   -0.472276
C   4.396764   -2.498941   -2.710034
C   5.565752   -1.749587   -2.735387
C   6.465095   -1.899933   -3.780285
C   6.172253   -2.804579   -4.781757
N   7.120705   -2.957543   -5.906289
O   6.834711   -3.760753   -6.768329
O   8.116106   -2.266641   -5.892045
C   5.025617   -3.576662   -4.772846
C   4.137408   -3.415017   -3.724206
H   2.882456   -3.253044   -1.415475
H   5.777794   -1.059052   -1.931460
H   7.381053   -1.329854   -3.827079
H   4.850540   -4.284753   -5.568849
H   3.238758   -4.021773   -3.692707

