%chk=reactant.chk
#p opt freq B3LYP/6-31G(d) scrf=(iefpcm,solvent=acetone) Temperature=303.15

Converted from XYZ file

1 1
C   -1.607898   -1.886424   -1.099681
C   -0.133198   -1.687925   -0.877954
C   0.748480   -2.513816   -1.465617
N   0.211937   -0.676544   0.015040
C   -0.634955   0.515909   0.190144
C   0.259264   1.661303   -0.261778
C   1.613656   1.246580   0.304728
C   1.612530   -0.293467   0.183877
C   2.265110   -0.879281   1.430832
N   2.350984   -2.369468   1.472024
H   2.627036   -2.698727   0.537518
C   3.406567   -2.861284   2.421728
C   3.052898   -4.328786   2.689328
C   1.630158   -4.514605   2.117748
C   1.115578   -3.101893   1.898792
H   -2.157348   -1.868273   -0.157082
H   -2.021968   -1.107175   -1.741317
H   -1.782561   -2.840626   -1.588750
H   0.381915   -3.301930   -2.105848
H   1.819849   -2.402071   -1.395850
H   -1.553616   0.436955   -0.380110
H   -0.905728   0.632762   1.243927
H   0.293083   1.695299   -1.352328
H   -0.073232   2.631533   0.102192
H   1.680812   1.542947   1.355511
H   2.459313   1.691817   -0.216406
H   2.188059   -0.593483   -0.695759
H   3.288619   -0.507445   1.496689
H   1.726356   -0.572694   2.329044
H   4.377958   -2.702103   1.961091
H   3.328132   -2.247878   3.318600
H   3.085557   -4.530622   3.757771
H   3.763256   -4.998629   2.210107
H   1.660308   -5.042106   1.163452
H   0.978057   -5.077648   2.780890
H   0.353470   -3.007743   1.134180
H   0.780101   -2.633886   2.824981
C   4.602522   -3.340066   -1.646466
O   4.116596   -2.744966   -0.703067
C   5.200861   -2.691583   -2.820159
C   5.281932   -1.301354   -2.904575
C   5.843145   -0.714099   -4.020496
C   6.304054   -1.540142   -5.033527
N   6.905474   -0.910530   -6.236713
O   7.248558   -1.648811   -7.132316
O   7.007272   0.296254   -6.233741
C   6.234142   -2.917724   -4.980638
C   5.676376   -3.495273   -3.851761
H   4.605891   -4.443055   -1.660940
H   4.908946   -0.695938   -2.089659
H   5.931471   0.356816   -4.124737
H   6.610478   -3.506926   -5.803153
H   5.607348   -4.573482   -3.774811

