%chk=knarr_saddle.chk
# B3LYP/6-31G(d) Opt=(TS,CalcAll,MaxStep=5) Freq SCRF=(IEFPCM,Solvent=Acetone) Temperature=303.15

Converted from XYZ file

1 1
C   -2.103115   0.898285   1.514357
C   -1.531624   0.782405   0.136436
C   -0.515691   1.663962   -0.238224
N   -1.947685   -0.245180   -0.604623
C   -3.067870   -1.110208   -0.157861
C   -3.455237   -1.922138   -1.386628
C   -3.017234   -1.031210   -2.548140
C   -1.689090   -0.451466   -2.049849
C   -0.601573   -1.488953   -2.326258
N   0.784845   -1.036146   -2.138374
H   0.924845   -0.603684   -1.101917
C   1.759662   -2.178376   -2.138064
C   3.083180   -1.597196   -2.653116
C   2.789289   -0.118782   -2.958535
C   1.283005   -0.074083   -3.151985
H   -3.191688   0.896580   1.496056
H   -1.781493   0.045846   2.118490
H   -1.758696   1.805306   2.002689
H   -0.511174   2.624827   0.260364
H   -0.218821   1.696858   -1.279980
H   -2.766040   -1.719640   0.691731
H   -3.900047   -0.478471   0.153625
H   -2.925733   -2.874132   -1.404772
H   -4.519644   -2.141546   -1.398269
H   -3.737899   -0.232791   -2.722817
H   -2.892778   -1.580521   -3.479471
H   -1.457573   0.504580   -2.516810
H   -0.748280   -2.335676   -1.658621
H   -0.704212   -1.847714   -3.355403
H   1.816448   -2.543081   -1.116125
H   1.378243   -2.976432   -2.775310
H   3.873925   -1.701078   -1.914538
H   3.402396   -2.123714   -3.550180
H   3.319529   0.244985   -3.835081
H   3.075588   0.510853   -2.115793
H   0.847347   0.904569   -2.973282
H   0.984507   -0.416815   -4.146496
C   1.139201   0.857846   0.611154
O   1.213946   -0.361083   0.241438
C   1.093697   1.152112   2.086331
C   1.145814   2.465014   2.552903
C   1.193064   2.736525   3.910850
C   1.217800   1.665402   4.789812
N   1.320122   1.932344   6.243827
O   1.357953   3.092008   6.594312
O   1.354408   0.971132   6.981868
C   1.164093   0.351753   4.364498
C   1.105490   0.101669   3.000475
H   1.732493   1.608769   0.071270
H   1.152395   3.292741   1.852783
H   1.236958   3.746214   4.298067
H   1.196706   -0.448937   5.092647
H   1.096247   -0.913532   2.630538

