%chk=product.chk
#p opt freq B3LYP/6-31G(d) scrf=(iefpcm,solvent=acetone) Temperature=303.15

Converted from XYZ file

1 1
C   -1.384709   1.155585   5.882240
C   -0.916870   1.209376   4.469092
C   0.196719   2.140609   4.130348
N   -1.481009   0.446835   3.594412
C   -2.598914   -0.471018   3.952476
C   -3.078002   -1.053977   2.627031
C   -2.608492   -0.022414   1.602880
C   -1.229049   0.381809   2.119827
C   -0.176078   -0.673267   1.768540
N   1.196144   -0.263530   1.998044
H   1.541092   0.070244   3.721701
C   2.136124   -1.395576   1.874938
C   3.507228   -0.724372   1.807698
C   3.220946   0.683386   1.235271
C   1.707040   0.708546   1.019685
H   -2.472343   1.206022   5.938108
H   -1.070748   0.208988   6.330588
H   -0.955456   1.963936   6.464749
H   -0.072699   3.138909   4.481680
H   0.365916   2.185241   3.059007
H   -2.242598   -1.212807   4.665498
H   -3.379753   0.119234   4.430959
H   -2.623537   -2.026063   2.441146
H   -4.156476   -1.189716   2.623995
H   -3.271841   0.843791   1.600695
H   -2.561788   -0.412065   0.588709
H   -0.933735   1.365018   1.763315
H   -0.364210   -1.577153   2.352764
H   -0.326443   -0.939654   0.711313
H   2.022704   -2.074869   2.720733
H   1.926168   -1.956287   0.953627
H   3.944658   -0.652844   2.802200
H   4.194640   -1.294633   1.187414
H   3.751486   0.875374   0.305351
H   3.521603   1.455598   1.942933
H   1.271738   1.698653   1.164806
H   1.450541   0.378559   0.002469
C   1.513690   1.665284   4.819166
O   1.626786   0.273282   4.685368
C   1.606224   2.049448   6.279552
C   1.555220   3.393634   6.643188
C   1.610466   3.767555   7.973992
C   1.723698   2.773951   8.929572
N   1.759427   3.159791   10.357063
O   1.690422   4.342274   10.614519
O   1.848892   2.266443   11.171065
C   1.807457   1.436649   8.598930
C   1.751256   1.076691   7.260306
H   2.327319   2.178604   4.290613
H   1.480767   4.164744   5.884599
H   1.570334   4.802686   8.278741
H   1.913502   0.699516   9.381080
H   1.820129   0.037512   6.973414

