%chk=reactant.chk
#p opt freq B3LYP/6-31G(d) scrf=(iefpcm,solvent=acetone) Temperature=303.15

Converted from XYZ file

1 1
C   -1.407249   2.192256   5.070689
C   -1.147629   1.872555   3.623812
C   -0.672830   2.813412   2.796748
N   -1.414790   0.544850   3.278435
C   -2.551166   -0.127881   3.946577
C   -2.883238   -1.300666   3.036468
C   -2.562723   -0.744221   1.650835
C   -1.289361   0.072441   1.897866
C   -0.079626   -0.850204   1.760052
N   1.212401   -0.208724   2.135310
H   1.088520   0.268806   3.044224
C   2.337629   -1.213523   2.327365
C   3.367758   -0.879275   1.259257
C   3.211294   0.629511   1.095671
C   1.703998   0.814605   1.136086
H   -2.476370   2.205478   5.284990
H   -0.955279   1.446442   5.726988
H   -1.010950   3.174924   5.317341
H   -0.480663   3.804517   3.180232
H   -0.544848   2.675877   1.734079
H   -2.288044   -0.437217   4.957172
H   -3.409331   0.548507   4.008182
H   -2.255873   -2.163288   3.268592
H   -3.919398   -1.614873   3.138394
H   -3.358427   -0.076128   1.319624
H   -2.432492   -1.512320   0.888489
H   -1.216037   0.903556   1.196490
H   -0.208550   -1.700862   2.428121
H   0.024764   -1.220112   0.738680
H   2.725315   -1.055127   3.331021
H   1.928680   -2.217515   2.257437
H   4.367379   -1.179033   1.565344
H   3.135462   -1.391065   0.323731
H   3.633652   1.009969   0.168272
H   3.683424   1.158487   1.925311
H   1.375798   1.797828   1.455914
H   1.247928   0.574763   0.175621
C   1.790509   1.821910   5.298485
O   1.738597   0.759052   4.711033
C   1.826680   1.954596   6.762015
C   1.895901   3.229542   7.314568
C   1.905308   3.390000   8.690399
C   1.839540   2.254415   9.473211
N   1.838027   2.413898   10.949273
O   1.914662   3.541689   11.382492
O   1.758081   1.403760   11.612325
C   1.770767   0.972703   8.951463
C   1.766154   0.825486   7.578584
H   1.797039   2.768220   4.731428
H   1.941213   4.097946   6.668461
H   1.959080   4.362178   9.156433
H   1.721612   0.127211   9.620846
H   1.713292   -0.155819   7.126966

