%chk=knarr_saddle.chk
# B3LYP/6-31G(d) Opt=(TS,CalcAll,MaxStep=5) Freq SCRF=(IEFPCM,Solvent=Acetone) Temperature=303.15

Converted from XYZ file

1 1
C   -2.206998   0.536454   1.033274
C   -1.627874   -0.106933   -0.188306
C   -1.063244   -1.449255   -0.044017
N   -1.618921   0.597528   -1.296920
C   -2.517038   1.778018   -1.503576
C   -2.424022   2.083490   -2.995205
C   -2.050441   0.734927   -3.609977
C   -1.055959   0.158531   -2.600009
C   0.369557   0.678303   -2.913713
N   1.275930   0.899555   -1.789967
H   1.239446   0.019513   -0.785352
C   2.707031   0.866956   -2.190868
C   3.458666   1.490505   -1.013681
C   2.412911   2.368891   -0.290628
C   1.129172   2.207241   -1.108244
H   -3.245751   0.846737   0.899725
H   -1.630412   1.436818   1.266306
H   -2.153015   -0.138705   1.881786
H   -1.607836   -1.972570   0.740180
H   -1.067576   -2.021247   -0.969684
H   -2.242158   2.617185   -0.866996
H   -3.527497   1.461880   -1.238877
H   -3.364209   2.473408   -3.381558
H   -1.657484   2.834122   -3.189232
H   -2.926467   0.090376   -3.681443
H   -1.618444   0.823877   -4.606028
H   -1.056879   -0.926761   -2.607582
H   0.308035   1.607568   -3.489309
H   0.826585   -0.067375   -3.567970
H   2.824431   1.460296   -3.101801
H   3.002176   -0.161016   -2.398306
H   3.831720   0.719423   -0.343144
H   4.312224   2.066433   -1.365373
H   2.265620   2.016653   0.728047
H   2.709298   3.414738   -0.243523
H   0.228054   2.216061   -0.496699
H   1.044567   2.984685   -1.874087
C   0.670905   -1.565183   0.530707
O   1.398773   -0.482288   0.231463
C   0.626882   -1.913772   2.003844
C   0.327270   -3.231613   2.338105
C   0.096149   -3.604869   3.649355
C   0.189223   -2.631049   4.626260
N   -0.151611   -2.998410   6.018062
O   -0.498756   -4.143748   6.217200
O   -0.084005   -2.128735   6.858594
C   0.563460   -1.329130   4.344783
C   0.797641   -0.974875   3.020244
H   0.917445   -2.464491   -0.045191
H   0.260733   -3.973767   1.551022
H   -0.163531   -4.618774   3.921442
H   0.653888   -0.618514   5.156722
H   1.112333   0.032909   2.780143

