%chk=product.chk
#p opt freq B3LYP/6-31G(d) scrf=(iefpcm,solvent=acetone) Temperature=303.15

Converted from XYZ file

1 1
C   -0.939294   -3.205805   1.103652
C   -0.400753   -3.553228   -0.238414
C   0.424107   -4.791764   -0.374004
N   -0.653226   -2.789227   -1.247284
C   -1.527544   -1.584528   -1.163543
C   -1.576794   -1.059121   -2.591494
C   -1.376904   -2.323010   -3.424725
C   -0.269381   -3.049486   -2.665708
C   1.127914   -2.511842   -3.070187
N   2.098655   -2.295897   -2.009111
H   2.265636   -3.176629   -0.385904
C   3.481771   -2.325867   -2.529664
C   4.313008   -1.733241   -1.396743
C   3.346551   -0.764450   -0.678146
C   2.001517   -0.962263   -1.385800
H   -1.902614   -2.704772   1.051116
H   -0.223911   -2.535341   1.590697
H   -1.018190   -4.095196   1.723232
H   -0.216300   -5.644622   -0.132840
H   0.784337   -4.914037   -1.390767
H   -1.121782   -0.881821   -0.438645
H   -2.513223   -1.906020   -0.825983
H   -2.515389   -0.551155   -2.798528
H   -0.766080   -0.350462   -2.764654
H   -2.287078   -2.924958   -3.436532
H   -1.089481   -2.123025   -4.455250
H   -0.314638   -4.122208   -2.825064
H   0.995793   -1.583404   -3.644061
H   1.538917   -3.244077   -3.767120
H   3.554464   -1.703850   -3.432718
H   3.762403   -3.344999   -2.795786
H   4.642540   -2.516523   -0.715367
H   5.200452   -1.232829   -1.776618
H   3.268989   -1.011805   0.378767
H   3.669194   0.271707   -0.751577
H   1.155064   -0.910711   -0.699447
H   1.855747   -0.200618   -2.165199
C   1.656186   -4.758242   0.571534
O   2.214217   -3.468262   0.552233
C   1.366478   -5.171872   1.998192
C   0.794755   -6.417144   2.252447
C   0.537460   -6.825527   3.549023
C   0.869741   -5.970365   4.583909
N   0.594551   -6.394366   5.973661
O   0.091106   -7.485677   6.131307
O   0.887537   -5.619565   6.858200
C   1.456617   -4.740466   4.366060
C   1.706429   -4.343606   3.060347
H   2.362494   -5.491158   0.162067
H   0.558724   -7.090946   1.436432
H   0.096215   -7.786599   3.767986
H   1.713965   -4.114827   5.208004
H   2.175824   -3.390641   2.864048

