%chk=reactant.chk
#p opt freq B3LYP/6-31G(d) scrf=(iefpcm,solvent=acetone) Temperature=303.15

Converted from XYZ file

1 1
C   -2.057104   -1.263650   0.569737
C   -1.174346   -2.230364   -0.169430
C   -0.578874   -3.243295   0.480726
N   -0.987760   -1.940566   -1.516452
C   -2.028128   -1.200687   -2.256907
C   -1.627482   -1.380634   -3.710994
C   -1.077390   -2.804694   -3.719688
C   -0.304981   -2.888395   -2.395512
C   1.156802   -2.534405   -2.667197
N   2.036394   -2.445086   -1.464661
H   1.817785   -3.232327   -0.838160
C   3.492270   -2.574848   -1.813171
C   4.241423   -2.056930   -0.583026
C   3.183749   -1.290924   0.243466
C   1.974569   -1.174945   -0.672618
H   -3.082629   -1.300576   0.200376
H   -1.704283   -0.237639   0.446409
H   -2.071456   -1.503456   1.629194
H   -0.768298   -3.373558   1.535868
H   0.026527   -3.997059   -0.001784
H   -2.061017   -0.156340   -1.951379
H   -3.015722   -1.640641   -2.082185
H   -2.466414   -1.245603   -4.389789
H   -0.855942   -0.659164   -3.988197
H   -1.898920   -3.521364   -3.701707
H   -0.456292   -3.032803   -4.585973
H   -0.355687   -3.899088   -1.983222
H   1.237640   -1.576498   -3.183772
H   1.586774   -3.309136   -3.303229
H   3.655788   -1.949391   -2.690473
H   3.692245   -3.611803   -2.067596
H   4.667793   -2.878061   -0.010616
H   5.062248   -1.412170   -0.888979
H   2.913988   -1.852698   1.138193
H   3.529240   -0.312310   0.566983
H   1.020770   -1.110330   -0.162652
H   2.072656   -0.357124   -1.387238
C   2.259848   -6.067952   0.227058
O   2.249288   -5.067757   -0.464429
C   2.032422   -6.085888   1.679981
C   2.040786   -7.311528   2.338149
C   1.822898   -7.367255   3.705528
C   1.605525   -6.179820   4.374497
N   1.374358   -6.227669   5.840389
O   1.343739   -7.320659   6.358744
O   1.233597   -5.167720   6.409832
C   1.593746   -4.943887   3.747480
C   1.809036   -4.903038   2.384935
H   2.448977   -7.048940   -0.238129
H   2.216549   -8.223754   1.781419
H   1.818882   -8.299302   4.250095
H   1.417035   -4.052412   4.330803
H   1.794164   -3.960209   1.855333

