%chk=knarr_saddle.chk
# B3LYP/6-31G(d) Opt=(TS,CalcAll,MaxStep=5) Freq SCRF=(IEFPCM,Solvent=Acetone) Temperature=303.15

Converted from XYZ file

1 1
C   -2.464165   -0.410585   0.302898
C   -1.172214   -1.132619   0.467552
C   -0.458063   -0.925094   1.679998
N   -0.681624   -1.782168   -0.575037
C   -1.443120   -1.914110   -1.844682
C   -0.616818   -2.871668   -2.687571
C   0.004760   -3.784003   -1.634193
C   0.382944   -2.819583   -0.500528
C   1.853291   -2.340486   -0.625866
N   2.119040   -0.899646   -0.773742
H   1.491262   -0.171855   -0.112201
C   3.534006   -0.578493   -0.423570
C   3.726140   0.823947   -0.968914
C   2.894376   0.839674   -2.264826
C   1.907803   -0.335356   -2.143718
H   -2.832155   -0.069597   1.265942
H   -3.225369   -1.019643   -0.181976
H   -2.293197   0.471640   -0.320750
H   -1.094190   -0.827533   2.553615
H   0.401490   -1.570447   1.857861
H   -1.606906   -0.941185   -2.305985
H   -2.413372   -2.358192   -1.616619
H   0.150238   -2.332929   -3.246022
H   -1.232504   -3.411133   -3.405013
H   -0.728213   -4.510942   -1.281714
H   0.867957   -4.338426   -1.999727
H   0.273697   -3.304788   0.466642
H   2.326198   -2.847061   -1.471966
H   2.389042   -2.667695   0.264705
H   4.188187   -1.304021   -0.913043
H   3.653976   -0.661848   0.656619
H   3.335689   1.548023   -0.257480
H   4.776717   1.044405   -1.142663
H   2.369178   1.783553   -2.380374
H   3.527709   0.705253   -3.140337
H   0.865390   -0.029608   -2.226764
H   2.116196   -1.111889   -2.880544
C   0.273734   0.798990   1.510761
O   0.877420   0.920315   0.355159
C   -0.785546   1.845016   1.806956
C   -1.377922   1.897817   3.067327
C   -2.328431   2.856837   3.370303
C   -2.660058   3.783506   2.399998
N   -3.654572   4.832050   2.725872
O   -3.905609   5.646212   1.861290
O   -4.147281   4.809104   3.831632
C   -2.074096   3.783473   1.147541
C   -1.130842   2.804880   0.856675
H   0.919494   0.648811   2.387946
H   -1.092335   1.180455   3.826308
H   -2.807382   2.904431   4.337361
H   -2.355730   4.547258   0.434997
H   -0.644218   2.796952   -0.110131

