%chk=product.chk
#p opt freq B3LYP/6-31G(d) scrf=(iefpcm,solvent=acetone) Temperature=303.15

Converted from XYZ file

1 1
C   -4.775236   1.015514   -1.658066
C   -3.625630   0.146662   -1.290513
C   -2.968425   0.360358   0.034327
N   -3.223311   -0.764147   -2.111310
C   -3.896221   -1.050465   -3.410354
C   -3.121004   -2.230174   -3.981073
C   -2.606124   -2.936624   -2.728823
C   -2.153673   -1.771691   -1.852063
C   -0.722831   -1.311929   -2.232862
N   -0.469120   0.118817   -2.289480
H   -1.286454   1.492832   -1.339287
C   0.967508   0.418325   -2.113904
C   1.092157   1.873080   -2.551161
C   -0.012086   2.045552   -3.618454
C   -0.782139   0.719423   -3.600691
H   -5.252496   1.411523   -0.765702
H   -5.509271   0.500556   -2.272662
H   -4.385658   1.869187   -2.221900
H   -3.705753   0.136708   0.810256
H   -2.123194   -0.308220   0.165719
H   -3.886092   -0.160472   -4.036360
H   -4.931766   -1.320984   -3.201974
H   -2.290880   -1.879621   -4.595518
H   -3.752745   -2.861247   -4.601278
H   -3.409700   -3.490282   -2.240189
H   -1.789272   -3.628454   -2.925966
H   -2.193468   -2.027275   -0.797971
H   -0.447887   -1.773258   -3.192074
H   -0.060335   -1.748368   -1.483599
H   1.567758   -0.234592   -2.763098
H   1.267019   0.240159   -1.080931
H   0.913588   2.540628   -1.709023
H   2.085802   2.088758   -2.936648
H   -0.665756   2.878010   -3.366054
H   0.396695   2.236723   -4.608262
H   -1.857507   0.859480   -3.721466
H   -0.431746   0.055145   -4.403675
C   -2.454596   1.818745   0.182924
O   -1.867069   2.223253   -1.028589
C   -3.510226   2.819358   0.601665
C   -4.234164   2.608787   1.773845
C   -5.191892   3.518100   2.186470
C   -5.405414   4.642994   1.410712
N   -6.430159   5.619431   1.838984
O   -6.600480   6.590115   1.133750
O   -7.031515   5.378853   2.863592
C   -4.690234   4.890553   0.256688
C   -3.734769   3.968656   -0.145697
H   -1.705521   1.787635   0.983924
H   -4.044658   1.735799   2.388337
H   -5.762618   3.374595   3.092041
H   -4.880804   5.791826   -0.307044
H   -3.153561   4.145220   -1.039061

