%chk=reactant.chk
#p opt freq B3LYP/6-31G(d) scrf=(iefpcm,solvent=acetone) Temperature=303.15

Converted from XYZ file

1 1
C   -4.587971   -0.295640   -0.090996
C   -3.369822   -1.058466   -0.531130
C   -2.588953   -1.682719   0.359011
N   -3.122475   -1.037538   -1.908662
C   -4.250375   -0.884712   -2.839688
C   -3.593287   -1.015904   -4.200777
C   -2.543878   -2.101683   -3.959768
C   -2.129999   -1.946888   -2.480818
C   -0.689598   -1.452563   -2.245789
N   -0.580661   0.029982   -2.192590
H   -1.389727   0.379533   -1.657955
C   0.666268   0.489138   -1.476758
C   1.041691   1.790281   -2.159132
C   0.714480   1.489972   -3.620420
C   -0.611877   0.744049   -3.530471
H   -4.618034   -0.234138   0.994200
H   -5.499965   -0.796093   -0.420977
H   -4.606010   0.713185   -0.506431
H   -2.833146   -1.627505   1.409024
H   -1.749150   -2.305023   0.091152
H   -4.743158   0.074820   -2.697806
H   -4.993331   -1.677947   -2.691861
H   -3.131202   -0.068481   -4.481814
H   -4.302456   -1.282471   -4.981419
H   -2.994196   -3.083992   -4.099982
H   -1.695276   -2.046333   -4.641896
H   -2.183519   -2.924386   -1.986870
H   -0.019599   -1.812881   -3.026959
H   -0.311447   -1.810414   -1.291515
H   1.429788   -0.272171   -1.635295
H   0.444180   0.560442   -0.414902
H   0.425059   2.608606   -1.786132
H   2.087302   2.041193   -1.996206
H   0.626888   2.382896   -4.235198
H   1.484841   0.853506   -4.059778
H   -1.456727   1.428649   -3.498837
H   -0.768838   0.014348   -4.319329
C   -2.537044   2.384200   0.143197
O   -2.122935   2.014114   -0.937617
C   -3.561317   3.424150   0.323885
C   -3.921185   3.791918   1.616567
C   -4.882990   4.768664   1.818276
C   -5.463492   5.342832   0.705062
N   -6.491946   6.394345   0.908818
O   -7.008874   6.858380   -0.083232
O   -6.737362   6.712141   2.050805
C   -5.131505   4.991349   -0.593683
C   -4.165531   4.023005   -0.781815
H   -2.150535   1.928266   1.071265
H   -3.445605   3.318484   2.466838
H   -5.183452   5.086750   2.805211
H   -5.626367   5.478500   -1.420223
H   -3.868618   3.723817   -1.778118

