%chk=knarr_saddle.chk
# B3LYP/6-31G(d) Opt=(TS,CalcAll,MaxStep=5) Freq SCRF=(IEFPCM,Solvent=Acetone) Temperature=303.15

Converted from XYZ file

1 1
C   -1.919931   2.154870   1.426640
C   -1.067068   1.914736   0.219318
C   -1.652419   1.353922   -0.919212
N   0.249619   2.040321   0.302962
C   1.118508   1.895228   -0.883901
C   2.514768   1.764521   -0.305944
C   2.446952   2.579385   0.984099
C   1.019520   2.383834   1.517633
C   0.862315   1.367794   2.659811
N   0.981654   -0.058094   2.268405
H   0.555936   -0.216029   1.261630
C   0.176337   -0.984308   3.130384
C   0.729288   -2.378367   2.820930
C   2.105494   -2.131426   2.162918
C   2.352218   -0.641667   2.346770
H   -2.068693   1.214580   1.967000
H   -2.899737   2.509133   1.118699
H   -1.491058   2.881556   2.112238
H   -1.161372   1.448764   -1.875361
H   -2.732503   1.379736   -0.971895
H   1.007226   2.780491   -1.515371
H   0.829859   1.012752   -1.445293
H   2.716594   0.711200   -0.114683
H   3.280477   2.124973   -0.988615
H   2.592767   3.634772   0.753901
H   3.199552   2.303930   1.721341
H   0.652579   3.328537   1.925020
H   1.605448   1.588576   3.429838
H   -0.115058   1.485762   3.120378
H   0.331182   -0.702482   4.172338
H   -0.875964   -0.860177   2.884327
H   0.069858   -2.911420   2.141359
H   0.811084   -2.966620   3.731928
H   2.901685   -2.717784   2.613861
H   2.067112   -2.375961   1.102914
H   2.995320   -0.193332   1.598503
H   2.748254   -0.415573   3.340216
C   -1.254995   -0.541748   -0.484702
O   -0.081930   -0.673733   0.014766
C   -1.502439   -1.121219   -1.848503
C   -2.795526   -1.259495   -2.345191
C   -2.998833   -1.753009   -3.622631
C   -1.893032   -2.098942   -4.378870
N   -2.095725   -2.563028   -5.769202
O   -3.236533   -2.629888   -6.173630
O   -1.103803   -2.827875   -6.414932
C   -0.602386   -2.014763   -3.893040
C   -0.414159   -1.523750   -2.613016
H   -2.122136   -0.645775   0.181320
H   -3.649115   -0.981990   -1.735706
H   -3.986624   -1.877346   -4.039725
H   0.223717   -2.334659   -4.509756
H   0.575716   -1.458914   -2.182272

