%chk=product.chk
#p opt freq B3LYP/6-31G(d) scrf=(iefpcm,solvent=acetone) Temperature=303.15

Converted from XYZ file

1 1
C   -5.403487   2.655093   -1.011275
C   -4.361588   2.318397   -2.021660
C   -4.819303   1.576795   -3.226768
N   -3.112531   2.560397   -1.831406
C   -2.063620   2.414284   -2.882483
C   -0.765473   2.335992   -2.104123
C   -1.032726   3.192791   -0.869250
C   -2.504298   2.951496   -0.519188
C   -2.770115   1.870081   0.543886
N   -2.582860   0.494000   0.096773
H   -3.110918   -0.017509   -1.714096
C   -3.541794   -0.437323   0.729139
C   -2.974525   -1.828728   0.430935
C   -1.478069   -1.578677   0.134104
C   -1.282216   -0.101541   0.453577
H   -5.829758   1.735196   -0.601983
H   -6.213620   3.170564   -1.528921
H   -5.050107   3.279888   -0.199099
H   -4.238375   1.799308   -4.118440
H   -5.864882   1.803025   -3.430668
H   -2.114837   3.310075   -3.504541
H   -2.253164   1.529859   -3.477753
H   -0.566928   1.299801   -1.837693
H   0.074215   2.698491   -2.692484
H   -0.882518   4.246424   -1.107085
H   -0.383883   2.951235   -0.029302
H   -2.970581   3.877329   -0.180459
H   -2.132628   2.103272   1.406408
H   -3.795883   1.971061   0.896477
H   -3.584510   -0.255905   1.811288
H   -4.545918   -0.282437   0.327288
H   -3.468457   -2.277825   -0.429154
H   -3.121506   -2.493807   1.278952
H   -0.818832   -2.210262   0.725033
H   -1.262124   -1.766769   -0.917590
H   -0.459817   0.356190   -0.092283
H   -1.094200   0.045695   1.527092
C   -4.688457   0.044526   -2.911550
O   -3.360306   -0.305139   -2.619908
C   -5.170065   -0.725537   -4.117543
C   -6.523393   -1.009793   -4.257979
C   -6.989763   -1.671248   -5.382028
C   -6.076002   -2.036893   -6.351342
N   -6.562352   -2.744827   -7.556188
O   -7.750574   -2.973686   -7.623236
O   -5.739100   -3.044635   -8.393378
C   -4.724548   -1.773802   -6.235785
C   -4.272420   -1.112033   -5.106015
H   -5.347471   -0.185037   -2.064665
H   -7.223158   -0.728087   -3.479314
H   -8.034327   -1.912009   -5.511567
H   -4.051084   -2.088872   -7.018830
H   -3.216505   -0.914897   -4.982673

