%chk=reactant.chk
#p opt freq B3LYP/6-31G(d) scrf=(iefpcm,solvent=acetone) Temperature=303.15

Converted from XYZ file

1 1
C   -5.535540   2.575629   -0.447344
C   -4.927714   2.388648   -1.808466
C   -5.694524   2.427296   -2.904069
N   -3.556842   2.092162   -1.858019
C   -2.939818   2.032416   -3.183273
C   -1.464073   1.857189   -2.887210
C   -1.271498   2.734156   -1.649942
C   -2.610866   2.665379   -0.886567
C   -2.564914   1.847948   0.413333
N   -2.569782   0.381527   0.154069
H   -3.105694   0.242678   -0.721111
C   -3.256659   -0.427687   1.217509
C   -2.773543   -1.866202   1.001740
C   -1.591513   -1.757357   0.014835
C   -1.234438   -0.280513   0.016655
H   -5.451645   1.662921   0.149233
H   -6.591574   2.811968   -0.546307
H   -5.067784   3.390462   0.108489
H   -5.310302   2.308008   -3.905730
H   -6.753409   2.615310   -2.802444
H   -3.124298   2.961247   -3.737328
H   -3.361243   1.208575   -3.758783
H   -1.251327   0.805178   -2.684132
H   -0.831726   2.161782   -3.717933
H   -1.095253   3.763319   -1.961187
H   -0.423800   2.443207   -1.029384
H   -2.906960   3.675046   -0.587641
H   -1.677554   2.092115   0.997678
H   -3.438562   2.058590   1.024369
H   -2.936152   -0.020351   2.175920
H   -4.329196   -0.294141   1.107086
H   -3.566388   -2.484011   0.589514
H   -2.466815   -2.302528   1.949640
H   -0.741854   -2.372386   0.300774
H   -1.905109   -2.058962   -0.984269
H   -0.728113   0.072153   -0.875918
H   -0.652753   0.001733   0.895580
C   -5.374312   -0.776980   -2.366066
O   -4.447456   -0.849863   -1.583633
C   -5.251470   -1.017205   -3.815249
C   -6.366975   -0.832905   -4.624627
C   -6.270996   -1.026011   -5.993166
C   -5.047286   -1.404017   -6.510183
N   -4.930580   -1.603851   -7.976029
O   -5.934222   -1.452605   -8.635426
O   -3.837657   -1.900270   -8.406549
C   -3.921795   -1.605572   -5.727957
C   -4.032289   -1.409502   -4.365224
H   -6.386137   -0.529531   -2.007651
H   -7.309306   -0.529585   -4.184991
H   -7.113987   -0.889978   -6.653829
H   -2.996344   -1.910228   -6.193468
H   -3.181317   -1.560414   -3.714068

