%chk=knarr_saddle.chk
# B3LYP/6-31G(d) Opt=(TS,CalcAll,MaxStep=5) Freq SCRF=(IEFPCM,Solvent=Acetone) Temperature=303.15

Converted from XYZ file

1 1
C   2.963761   1.313087   -0.843890
C   1.844767   0.321773   -0.641905
C   1.298091   0.080042   0.715233
N   1.474741   -0.345970   -1.708208
C   2.198370   -0.394541   -3.008480
C   2.105818   -1.867187   -3.436831
C   0.993791   -2.494467   -2.568364
C   0.389456   -1.343455   -1.754585
C   -0.874448   -0.798095   -2.428110
N   -1.457301   0.382219   -1.783398
H   -1.331725   0.256275   -0.404581
C   -0.959704   1.681570   -2.275608
C   -1.943960   2.690130   -1.690643
C   -3.278079   1.914780   -1.592834
C   -2.928623   0.472244   -1.970742
H   2.872591   1.839363   -1.795088
H   3.000169   2.037313   -0.036298
H   3.929953   0.794787   -0.860135
H   1.142490   -0.981946   0.872101
H   1.995285   0.500478   1.436782
H   3.225045   -0.064734   -2.891599
H   1.713326   0.267584   -3.729367
H   1.897589   -1.950305   -4.502165
H   3.055869   -2.367946   -3.258812
H   0.234242   -2.989650   -3.171905
H   1.409652   -3.241414   -1.895560
H   0.143603   -1.630006   -0.735844
H   -0.695418   -0.585849   -3.490174
H   -1.603906   -1.609261   -2.382258
H   -1.003257   1.674918   -3.371256
H   0.072364   1.850058   -1.969235
H   -1.615252   3.015404   -0.703010
H   -2.016557   3.575525   -2.317987
H   -3.682157   1.966812   -0.583831
H   -4.031804   2.312386   -2.268627
H   -3.160095   0.264492   -3.020446
H   -3.420240   -0.274313   -1.347266
C   -0.373403   0.532791   1.427274
O   -1.337043   -0.025326   0.685956
C   -0.329701   0.037219   2.874937
C   0.172094   0.874852   3.873026
C   0.306736   0.439847   5.185609
C   -0.082365   -0.847298   5.498797
N   0.087101   -1.331848   6.892867
O   0.558456   -0.556537   7.696905
O   -0.251073   -2.470422   7.130429
C   -0.629104   -1.693241   4.551406
C   -0.761385   -1.242837   3.241263
H   -0.336577   1.625939   1.397453
H   0.458923   1.891412   3.631235
H   0.709048   1.075308   5.961380
H   -0.934192   -2.684930   4.857939
H   -1.215961   -1.897029   2.508449

