%chk=product.chk
#p opt freq B3LYP/6-31G(d) scrf=(iefpcm,solvent=acetone) Temperature=303.15

Converted from XYZ file

1 1
C   3.676883   -2.069368   1.965912
C   2.756151   -3.239506   1.867985
C   2.217073   -3.766417   3.155135
N   2.516678   -3.762436   0.714741
C   3.285823   -3.447555   -0.517827
C   3.191741   -4.728890   -1.366486
C   2.412035   -5.736769   -0.502771
C   1.563352   -4.850670   0.399393
C   0.350893   -4.288970   -0.360909
N   -0.346267   -3.216245   0.329046
H   -0.259277   -3.497927   2.053862
C   0.034132   -1.851600   -0.061460
C   -1.035960   -0.979816   0.596310
C   -2.273768   -1.901421   0.700127
C   -1.807593   -3.236241   0.120871
H   3.680950   -1.448408   1.073914
H   3.397160   -1.465427   2.827776
H   4.694534   -2.430153   2.147012
H   2.067841   -4.844943   3.128347
H   2.980118   -3.548354   3.904584
H   4.307149   -3.204098   -0.239557
H   2.842893   -2.581169   -1.008996
H   2.672851   -4.525604   -2.300374
H   4.181279   -5.098790   -1.621906
H   1.802000   -6.414789   -1.096715
H   3.090054   -6.339391   0.101959
H   1.229854   -5.318315   1.321575
H   0.647223   -3.978033   -1.371921
H   -0.329977   -5.132941   -0.484232
H   0.004679   -1.752329   -1.156730
H   1.043580   -1.603379   0.270946
H   -0.711378   -0.664038   1.587816
H   -1.227108   -0.079861   0.016107
H   -2.574138   -2.023622   1.739220
H   -3.128881   -1.511138   0.153413
H   -2.032385   -3.300525   -0.952191
H   -2.244289   -4.103034   0.616111
C   0.866786   -3.135166   3.622038
O   -0.206505   -3.776501   3.002665
C   0.767900   -3.295139   5.122860
C   1.404285   -2.377709   5.952718
C   1.384625   -2.537452   7.326995
C   0.717666   -3.630815   7.847334
N   0.703717   -3.820345   9.314143
O   1.285231   -2.995428   9.986032
O   0.116446   -4.789236   9.744012
C   0.062399   -4.548356   7.049888
C   0.089278   -4.374012   5.674310
H   0.879867   -2.060069   3.391239
H   1.911910   -1.519071   5.526320
H   1.865805   -1.837017   7.992973
H   -0.455974   -5.378363   7.506636
H   -0.428381   -5.068886   5.028428

