%chk=reactant.chk
#p opt freq B3LYP/6-31G(d) scrf=(iefpcm,solvent=acetone) Temperature=303.15

Converted from XYZ file

1 1
C   4.431488   -1.960887   0.365587
C   3.165229   -2.550852   0.922362
C   2.656179   -2.070728   2.068625
N   2.550474   -3.534250   0.146950
C   3.318835   -4.355951   -0.802253
C   3.303033   -5.741375   -0.172214
C   1.866176   -5.832247   0.333190
C   1.509969   -4.379652   0.734527
C   0.107590   -4.072897   0.224590
N   -0.440848   -2.741865   0.614392
H   -0.254317   -2.601296   1.618170
C   0.073040   -1.553335   -0.139628
C   -0.902278   -0.464330   0.271237
C   -2.267221   -1.177150   0.347789
C   -1.935196   -2.671581   0.453323
H   4.311376   -1.671625   -0.679485
H   4.708180   -1.080778   0.938983
H   5.259529   -2.669134   0.423165
H   1.766851   -2.458037   2.542228
H   3.176927   -1.279320   2.585823
H   4.312814   -3.956940   -0.964398
H   2.808819   -4.372324   -1.770745
H   3.557014   -6.536106   -0.871359
H   4.008735   -5.774839   0.660100
H   1.212984   -6.171404   -0.475539
H   1.737361   -6.521097   1.165691
H   1.527185   -4.279978   1.821899
H   0.074514   -4.121071   -0.865445
H   -0.582059   -4.818843   0.623043
H   0.002433   -1.796687   -1.200429
H   1.106725   -1.368609   0.133846
H   -0.615832   -0.069345   1.247377
H   -0.896117   0.365422   -0.431153
H   -2.849641   -0.837342   1.200705
H   -2.859566   -0.992693   -0.545792
H   -2.178077   -3.214104   -0.459201
H   -2.389739   -3.181028   1.299766
C   -0.320658   -2.532279   4.543574
O   -0.464846   -2.975675   3.419128
C   0.135361   -3.323875   5.691544
C   0.307780   -2.683940   6.915092
C   0.751021   -3.399902   8.015011
C   1.008363   -4.745876   7.848039
N   1.481708   -5.524398   9.020857
O   1.576787   -4.933984   10.073105
O   1.738033   -6.693767   8.837560
C   0.846917   -5.409754   6.642276
C   0.404285   -4.685976   5.553842
H   -0.524654   -1.467971   4.748137
H   0.096171   -1.625704   7.008117
H   0.897485   -2.940121   8.980535
H   1.065991   -6.465152   6.581883
H   0.258648   -5.163091   4.594247

