%chk=knarr_saddle.chk
# B3LYP/6-31G(d) Opt=(TS,CalcAll,MaxStep=5) Freq SCRF=(IEFPCM,Solvent=Acetone) Temperature=303.15

Converted from XYZ file

1 1
C   -0.707980   2.122511   -1.188071
C   -1.433127   0.949218   -0.634006
C   -1.630655   0.923274   0.771774
N   -1.654245   -0.103075   -1.394538
C   -2.545830   -1.220710   -1.023579
C   -3.096543   -1.668422   -2.370229
C   -1.897109   -1.507108   -3.299346
C   -1.193323   -0.238694   -2.796544
C   0.335226   -0.234970   -2.956065
N   1.109026   -0.872040   -1.871529
H   0.895095   -0.404875   -0.800357
C   1.006451   -2.350875   -1.773300
C   2.163468   -2.725414   -0.854905
C   3.252801   -1.669408   -1.147543
C   2.575688   -0.633481   -2.048504
H   -0.980023   3.020309   -0.639735
H   0.361099   1.949414   -1.015543
H   -0.885820   2.281402   -2.248297
H   -2.359467   0.227284   1.169741
H   -1.697874   1.906511   1.224528
H   -3.312729   -0.864284   -0.341886
H   -1.983644   -2.016936   -0.528310
H   -3.906867   -1.002675   -2.670765
H   -3.485762   -2.683828   -2.346321
H   -1.239649   -2.372827   -3.226133
H   -2.178145   -1.402601   -4.345620
H   -1.572012   0.616021   -3.361223
H   0.576810   -0.738941   -3.898238
H   0.702306   0.786488   -3.038583
H   0.031564   -2.640982   -1.387262
H   1.131264   -2.770024   -2.777814
H   2.498655   -3.743002   -1.041798
H   1.846636   -2.663634   0.185314
H   3.600246   -1.210754   -0.225138
H   4.114345   -2.101611   -1.651953
H   2.819222   -0.787085   -3.103015
H   2.795372   0.397576   -1.779477
C   0.012793   0.152495   1.296000
O   0.959741   0.216381   0.387888
C   0.242373   0.883228   2.592036
C   -0.573365   0.586266   3.681511
C   -0.475020   1.304587   4.858242
C   0.463212   2.319464   4.928521
N   0.546502   3.117948   6.171373
O   -0.210666   2.830377   7.071021
O   1.365645   4.015286   6.201924
C   1.316235   2.611597   3.882000
C   1.203862   1.882426   2.705562
H   -0.405925   -0.848976   1.469284
H   -1.301061   -0.213942   3.605722
H   -1.107925   1.102708   5.709340
H   2.044183   3.402169   3.999669
H   1.864944   2.086236   1.874177

