%chk=product.chk
#p opt freq B3LYP/6-31G(d) scrf=(iefpcm,solvent=acetone) Temperature=303.15

Converted from XYZ file

1 1
C   0.400661   3.726793   2.414353
C   -0.217021   2.652650   3.232113
C   -0.263726   2.869427   4.709106
N   -0.603297   1.538759   2.714094
C   -1.384515   0.498216   3.423339
C   -2.107699   -0.206151   2.286921
C   -1.053753   -0.234802   1.183885
C   -0.305769   1.098259   1.315276
C   1.208290   1.023631   1.041295
N   2.032389   0.664973   2.187156
H   2.052965   1.663475   3.824324
C   2.009980   -0.755983   2.570246
C   3.197379   -0.887448   3.521452
C   4.200655   0.180420   3.030295
C   3.463220   0.910016   1.905004
H   -0.029507   4.679340   2.725276
H   1.464843   3.770929   2.662744
H   0.270684   3.603943   1.344683
H   -1.219195   2.585827   5.150574
H   -0.088257   3.922255   4.922549
H   -2.043097   0.959759   4.153179
H   -0.698639   -0.175014   3.938264
H   -2.978499   0.376239   1.982683
H   -2.448176   -1.197332   2.577146
H   -0.368526   -1.068291   1.333645
H   -1.482625   -0.339239   0.189819
H   -0.749228   1.831084   0.639286
H   1.346011   0.312128   0.213343
H   1.564320   1.987473   0.678790
H   1.065550   -1.033533   3.037627
H   2.143641   -1.387941   1.679507
H   3.607748   -1.894603   3.509716
H   2.886326   -0.673540   4.544406
H   4.455286   0.866421   3.836012
H   5.126898   -0.258460   2.666997
H   3.726655   0.487226   0.926202
H   3.663768   1.981844   1.873830
C   0.888474   2.034282   5.350597
O   2.082309   2.223665   4.630930
C   1.065238   2.451265   6.789233
C   0.189708   1.965028   7.754959
C   0.314436   2.352997   9.077498
C   1.327450   3.233965   9.406658
N   1.476072   3.648941   10.818962
O   0.698416   3.177167   11.620441
O   2.364463   4.431331   11.077368
C   2.211267   3.732749   8.470174
C   2.075301   3.334354   7.149275
H   0.599917   0.976550   5.331838
H   -0.588643   1.261299   7.480627
H   -0.345020   1.981869   9.847741
H   2.990053   4.413223   8.781103
H   2.766475   3.695365   6.401244

