%chk=reactant.chk
#p opt freq B3LYP/6-31G(d) scrf=(iefpcm,solvent=acetone) Temperature=303.15

Converted from XYZ file

1 1
C   0.119411   3.367232   3.663255
C   -0.676267   2.114034   3.900129
C   -1.350886   1.963778   5.048371
N   -0.602109   1.118143   2.916907
C   -1.640637   0.073383   2.889635
C   -2.056342   -0.028550   1.426503
C   -0.777050   0.321074   0.680643
C   -0.140000   1.410350   1.551974
C   1.389743   1.474922   1.424483
N   2.105889   0.572973   2.365396
H   1.760514   0.756693   3.322845
C   1.978194   -0.900639   2.145716
C   3.056494   -1.473341   3.052076
C   4.203400   -0.443710   2.997150
C   3.587457   0.822780   2.391724
H   -0.093509   4.085552   4.450605
H   1.193355   3.160932   3.691822
H   -0.110635   3.840474   2.707959
H   -1.905002   1.073293   5.304743
H   -1.368472   2.776794   5.758486
H   -2.477896   0.360560   3.521951
H   -1.250315   -0.876398   3.269573
H   -2.829199   0.711483   1.213336
H   -2.450598   -1.009033   1.167741
H   -0.129175   -0.553111   0.606000
H   -0.949026   0.681672   -0.332260
H   -0.516285   2.380306   1.211582
H   1.698548   1.208480   0.412130
H   1.760301   2.477001   1.633760
H   0.969310   -1.216977   2.393273
H   2.176504   -1.089866   1.089677
H   3.360616   -2.464497   2.725179
H   2.672049   -1.561034   4.067615
H   4.600105   -0.249032   3.989927
H   5.024370   -0.792510   2.374733
H   3.899736   0.982370   1.360443
H   3.767329   1.727250   2.966907
C   1.458190   1.201736   6.074038
O   2.147103   1.194919   5.069047
C   1.492099   2.270329   7.084267
C   0.666904   2.165312   8.199696
C   0.672397   3.159645   9.163239
C   1.510878   4.241034   8.972188
N   1.519492   5.316334   9.995489
O   0.806348   5.164325   10.962110
O   2.238212   6.268970   9.787989
C   2.342590   4.372970   7.872687
C   2.330752   3.371432   6.920940
H   0.770085   0.368842   6.283104
H   0.014719   1.307439   8.309758
H   0.047597   3.113398   10.042485
H   2.975867   5.243067   7.785348
H   2.968495   3.430222   6.049420

