%chk=knarr_saddle.chk
# B3LYP/6-31G(d) Opt=(TS,CalcAll,MaxStep=5) Freq SCRF=(IEFPCM,Solvent=Acetone) Temperature=303.15

Converted from XYZ file

1 1
C   -1.573250   0.419015   2.443935
C   -0.335287   -0.236623   1.922087
C   0.870020   0.502951   1.924511
N   -0.404045   -1.383943   1.284858
C   0.791574   -2.201048   0.963850
C   0.240914   -3.601280   0.655959
C   -1.209998   -3.564163   1.153172
C   -1.621270   -2.114296   0.901009
C   -1.923544   -1.921328   -0.585224
N   -2.135812   -0.521206   -1.006380
H   -1.256556   0.103554   -0.661449
C   -2.091840   -0.386392   -2.497381
C   -2.782852   0.937238   -2.759864
C   -3.902291   0.985803   -1.709724
C   -3.458778   0.037260   -0.588199
H   -2.288600   -0.290457   2.855609
H   -2.055492   0.980823   1.643166
H   -1.311847   1.135777   3.216437
H   0.938024   1.276055   2.682010
H   1.794007   -0.039360   1.772207
H   1.337623   -1.758316   0.132189
H   1.436761   -2.203347   1.841515
H   0.281820   -3.808071   -0.412441
H   0.822900   -4.375506   1.149227
H   -1.855681   -4.281056   0.648455
H   -1.256399   -3.766504   2.223294
H   -2.465799   -1.800068   1.509745
H   -2.820029   -2.492605   -0.840401
H   -1.100433   -2.310297   -1.181789
H   -2.636069   -1.227307   -2.932978
H   -1.050480   -0.413491   -2.807277
H   -3.165690   0.993456   -3.776976
H   -2.081373   1.757691   -2.612410
H   -4.074153   1.992934   -1.341390
H   -4.846147   0.642884   -2.123777
H   -3.361724   0.531771   0.370642
H   -4.150805   -0.795399   -0.459208
C   0.640083   1.414714   0.287354
O   0.052391   0.668781   -0.603520
C   2.076245   1.798943   0.013240
C   2.675753   2.846412   0.704056
C   4.022769   3.121700   0.538612
C   4.752988   2.336739   -0.333999
N   6.202715   2.578711   -0.473052
O   6.680378   3.473865   0.189268
O   6.817374   1.857741   -1.230994
C   4.173933   1.328547   -1.078329
C   2.825062   1.070610   -0.903050
H   0.065409   2.265914   0.682562
H   2.087590   3.450225   1.383798
H   4.511784   3.918873   1.076387
H   4.780793   0.762634   -1.768863
H   2.337333   0.300443   -1.480478

