%chk=product.chk
#p opt freq B3LYP/6-31G(d) scrf=(iefpcm,solvent=acetone) Temperature=303.15

Converted from XYZ file

1 1
C   0.030453   -0.055937   -0.553584
C   1.198131   -0.871119   -0.991655
C   2.499981   -0.163918   -1.107218
N   1.094554   -2.094563   -1.376416
C   2.256981   -2.973130   -1.699801
C   1.663069   -4.378438   -1.854341
C   0.226344   -4.264618   -1.327746
C   -0.160779   -2.829861   -1.661466
C   -0.479800   -2.670088   -3.154069
N   -0.639206   -1.294064   -3.583802
H   1.136040   -0.429554   -3.474626
C   -0.574275   -1.159417   -5.054286
C   -1.067556   0.265550   -5.304282
C   -1.977966   0.573707   -4.091708
C   -1.954529   -0.714693   -3.271511
H   -0.814277   -0.647901   -0.218223
H   -0.295890   0.574658   -1.384296
H   0.344955   0.603663   0.253733
H   2.632133   0.546177   -0.291753
H   3.349896   -0.839832   -1.128506
H   2.738466   -2.599505   -2.601694
H   2.959480   -2.914263   -0.871153
H   1.673903   -4.684325   -2.898522
H   2.243408   -5.110192   -1.298458
H   -0.449917   -4.983334   -1.786932
H   0.193241   -4.414208   -0.248270
H   -0.968394   -2.448026   -1.043714
H   -1.379561   -3.267106   -3.362078
H   0.334306   -3.110479   -3.733957
H   -1.242898   -1.893040   -5.525082
H   0.439488   -1.341646   -5.412595
H   -1.597036   0.339347   -6.251316
H   -0.227495   0.957854   -5.345758
H   -1.579660   1.407186   -3.511379
H   -2.991579   0.840578   -4.381769
H   -2.088109   -0.553888   -2.202465
H   -2.746067   -1.401562   -3.605161
C   2.464317   0.614088   -2.468790
O   2.098942   -0.252532   -3.515283
C   3.833481   1.191488   -2.727524
C   4.184106   2.412736   -2.163240
C   5.454090   2.933319   -2.349110
C   6.354517   2.208301   -3.105660
N   7.714015   2.755061   -3.311386
O   7.962722   3.828000   -2.805910
O   8.485341   2.090681   -3.969033
C   6.031984   0.995652   -3.683763
C   4.758188   0.486943   -3.489716
H   1.745606   1.436527   -2.376621
H   3.459774   2.975168   -1.585055
H   5.749023   3.883305   -1.929117
H   6.769735   0.472682   -4.273805
H   4.474141   -0.449163   -3.950085

