%chk=reactant.chk
#p opt freq B3LYP/6-31G(d) scrf=(iefpcm,solvent=acetone) Temperature=303.15

Converted from XYZ file

1 1
C   -0.056525   -0.305151   -0.073164
C   1.281562   -0.732473   -0.605802
C   2.402394   -0.153778   -0.154163
N   1.304282   -1.730711   -1.585929
C   2.547664   -2.514794   -1.719886
C   2.109601   -3.918575   -2.145212
C   0.666695   -4.005942   -1.643960
C   0.150994   -2.584310   -1.877399
C   -0.265786   -2.447536   -3.345760
N   -0.480259   -1.034511   -3.757231
H   0.280641   -0.477533   -3.337736
C   -0.379024   -0.843459   -5.254488
C   -1.378985   0.252575   -5.566921
C   -2.527281   -0.086706   -4.619560
C   -1.799152   -0.423587   -3.325311
H   -0.541923   -1.106695   0.487266
H   -0.738452   0.003825   -0.866306
H   0.072426   0.536140   0.601868
H   2.336366   0.605693   0.610523
H   3.389928   -0.428005   -0.494413
H   3.239449   -2.052925   -2.427097
H   3.043788   -2.546534   -0.746552
H   2.157297   -4.042620   -3.227951
H   2.748822   -4.684288   -1.711934
H   0.073664   -4.766749   -2.151932
H   0.646585   -4.220590   -0.574967
H   -0.690121   -2.340620   -1.232174
H   -1.180016   -3.004364   -3.557301
H   0.527972   -2.833691   -3.985153
H   -0.666741   -1.785652   -5.720478
H   0.654655   -0.613599   -5.498697
H   -1.666489   0.247200   -6.615527
H   -0.955871   1.229684   -5.329126
H   -3.229096   0.731563   -4.476911
H   -3.084532   -0.949766   -4.987990
H   -1.562756   0.481345   -2.770329
H   -2.319604   -1.120765   -2.672910
C   2.119185   1.604629   -2.675068
O   1.335615   0.989511   -3.373548
C   3.582625   1.532743   -2.821959
C   4.381113   2.295957   -1.977036
C   5.760840   2.224899   -2.075536
C   6.299952   1.380993   -3.027038
N   7.776898   1.284435   -3.130724
O   8.429372   1.969367   -2.375440
O   8.222908   0.523541   -3.961343
C   5.529829   0.616862   -3.888091
C   4.155268   0.699471   -3.780508
H   1.749359   2.281355   -1.889657
H   3.922629   2.938833   -1.235349
H   6.414594   2.798816   -1.436249
H   6.013649   -0.017039   -4.615830
H   3.513800   0.125805   -4.435965

