%chk=knarr_saddle.chk
# B3LYP/6-31G(d) Opt=(TS,CalcAll,MaxStep=5) Freq SCRF=(IEFPCM,Solvent=Acetone) Temperature=303.15

Converted from XYZ file

1 1
C   1.837197   0.997992   -1.539744
C   1.531003   0.542171   -0.152117
C   1.636079   -0.856374   0.108326
N   1.060880   1.414380   0.715471
C   1.010255   2.871848   0.431980
C   1.409027   3.511056   1.753381
C   0.768573   2.588081   2.778040
C   0.935451   1.181334   2.189548
C   -0.147443   0.199519   2.672107
N   -1.310582   0.023074   1.795387
H   -1.032304   -0.408999   0.633359
C   -2.187021   1.203618   1.601677
C   -3.117327   1.232426   2.816405
C   -3.178905   -0.238039   3.291922
C   -2.255756   -0.993884   2.331386
H   2.670408   1.703541   -1.537560
H   2.108123   0.150241   -2.160805
H   0.969767   1.492755   -1.977661
H   2.422789   -1.340147   -0.460023
H   1.634626   -1.156993   1.154015
H   1.690072   3.120753   -0.374439
H   0.000810   3.157143   0.127801
H   2.495212   3.503269   1.856565
H   1.070874   4.541686   1.832279
H   -0.289192   2.826327   2.900038
H   1.226601   2.648886   3.763272
H   1.897899   0.774981   2.511425
H   0.283699   -0.792513   2.801872
H   -0.472649   0.537653   3.661961
H   -2.741119   1.015827   0.681030
H   -1.600593   2.104292   1.447151
H   -4.094801   1.623831   2.543018
H   -2.715096   1.877911   3.597085
H   -4.186989   -0.645159   3.252682
H   -2.829458   -0.331591   4.318773
H   -1.703262   -1.818204   2.778892
H   -2.802809   -1.382327   1.471987
C   0.064676   -1.593836   -0.689923
O   -0.970126   -0.800658   -0.489118
C   0.335118   -1.922105   -2.141493
C   1.299671   -2.872339   -2.469965
C   1.548786   -3.207290   -3.788835
C   0.790520   -2.597134   -4.772602
N   1.005934   -2.995262   -6.183298
O   0.299046   -2.477127   -7.020086
O   1.869202   -3.814966   -6.403567
C   -0.178118   -1.655099   -4.486440
C   -0.405476   -1.320881   -3.158430
H   0.121086   -2.493035   -0.066250
H   1.852677   -3.370228   -1.682488
H   2.298990   -3.933804   -4.064324
H   -0.744124   -1.212653   -5.294850
H   -1.181903   -0.613949   -2.904816

