%chk=product.chk
#p opt freq B3LYP/6-31G(d) scrf=(iefpcm,solvent=acetone) Temperature=303.15

Converted from XYZ file

1 1
C   -3.647126   0.331989   -5.171719
C   -3.708186   -0.209512   -3.784614
C   -3.522287   -1.675627   -3.607410
N   -3.894037   0.583343   -2.785199
C   -3.960070   2.058819   -2.927744
C   -3.416720   2.562124   -1.600804
C   -3.967641   1.551827   -0.602362
C   -3.919465   0.202092   -1.330596
C   -5.028758   -0.778429   -0.900500
N   -6.235785   -0.794641   -1.726205
H   -6.049891   -1.298427   -3.419349
C   -7.064539   0.423300   -1.612140
C   -7.817703   0.308961   -0.277377
C   -7.905673   -1.213047   -0.029381
C   -7.170657   -1.832995   -1.230590
H   -2.732680   0.919138   -5.296670
H   -3.635371   -0.480211   -5.892001
H   -4.501021   0.975700   -5.379045
H   -2.583074   -1.942944   -4.097661
H   -3.439970   -1.947884   -2.560539
H   -3.378240   2.378517   -3.786053
H   -5.001738   2.345399   -3.084688
H   -2.325904   2.540294   -1.616517
H   -3.730332   3.582467   -1.393599
H   -4.994232   1.799100   -0.331758
H   -3.393265   1.506313   0.320623
H   -2.957100   -0.271215   -1.126770
H   -4.638300   -1.795826   -0.902446
H   -5.243680   -0.541775   0.150444
H   -7.767402   0.410904   -2.447596
H   -6.467945   1.327293   -1.706124
H   -8.795818   0.781425   -0.337866
H   -7.275280   0.806597   0.527682
H   -8.933138   -1.566663   0.023216
H   -7.424987   -1.486619   0.909329
H   -6.632600   -2.750676   -0.996383
H   -7.871624   -2.052871   -2.037979
C   -4.718903   -2.427201   -4.285002
O   -5.841111   -1.582459   -4.344474
C   -4.387240   -2.935558   -5.672262
C   -3.289248   -3.774921   -5.852012
C   -2.972228   -4.264889   -7.105449
C   -3.773967   -3.903397   -8.172971
N   -3.436555   -4.414037   -9.519100
O   -4.157902   -4.084375   -10.435450
O   -2.458648   -5.124300   -9.613632
C   -4.877299   -3.088340   -8.025505
C   -5.183778   -2.604222   -6.761282
H   -4.927928   -3.302470   -3.657696
H   -2.677128   -4.067290   -5.006045
H   -2.127197   -4.917264   -7.266493
H   -5.480723   -2.844492   -8.887446
H   -6.047843   -1.972640   -6.616057

