%chk=reactant.chk
#p opt freq B3LYP/6-31G(d) scrf=(iefpcm,solvent=acetone) Temperature=303.15

Converted from XYZ file

1 1
C   -2.628950   -0.634265   -4.223965
C   -2.985909   -0.586722   -2.765285
C   -2.661108   -1.597408   -1.941589
N   -3.710253   0.524013   -2.358066
C   -3.662346   1.810597   -3.075972
C   -3.609203   2.851501   -1.963006
C   -4.423610   2.197329   -0.852952
C   -4.012097   0.724894   -0.945510
C   -5.071267   -0.257627   -0.399688
N   -5.855102   -0.934145   -1.471316
H   -5.205398   -1.332030   -2.164638
C   -6.840003   -0.041778   -2.167567
C   -8.038606   0.006800   -1.221895
C   -7.974881   -1.314102   -0.419929
C   -6.724106   -2.030224   -0.930388
H   -1.832387   0.073313   -4.457393
H   -2.267475   -1.626161   -4.486222
H   -3.486422   -0.389598   -4.853528
H   -2.126870   -2.450326   -2.332452
H   -2.822744   -1.574203   -0.874211
H   -2.796600   1.865373   -3.730136
H   -4.555516   1.939867   -3.696292
H   -2.578099   2.992899   -1.634974
H   -4.000569   3.818053   -2.273071
H   -5.494076   2.312864   -1.045340
H   -4.224535   2.608537   0.135434
H   -3.104231   0.569318   -0.348159
H   -4.609729   -1.051804   0.181889
H   -5.775507   0.262694   0.249787
H   -7.076618   -0.537778   -3.106146
H   -6.378579   0.915403   -2.383285
H   -8.960798   0.103330   -1.789357
H   -7.981497   0.868245   -0.557739
H   -8.852970   -1.935431   -0.576793
H   -7.906654   -1.118985   0.648724
H   -6.175315   -2.590777   -0.177964
H   -6.940730   -2.681654   -1.774273
C   -4.858930   -3.105293   -4.513549
O   -5.555299   -2.306020   -3.921592
C   -4.761391   -3.192600   -5.978889
C   -3.912513   -4.141456   -6.539317
C   -3.780893   -4.228413   -7.916049
C   -4.512562   -3.351269   -8.691624
N   -4.371139   -3.426602   -10.167625
O   -5.026421   -2.647695   -10.823979
O   -3.609630   -4.258482   -10.607460
C   -5.370531   -2.400659   -8.161934
C   -5.492876   -2.324565   -6.788930
H   -4.233290   -3.818879   -3.950078
H   -3.353809   -4.813499   -5.899208
H   -3.131527   -4.949995   -8.388421
H   -5.917413   -1.747991   -8.825663
H   -6.150953   -1.598209   -6.331681

