%chk=knarr_saddle.chk
# B3LYP/6-31G(d) Opt=(TS,CalcAll,MaxStep=5) Freq SCRF=(IEFPCM,Solvent=Acetone) Temperature=303.15

Converted from XYZ file

1 1
C   -2.919326   1.231670   -0.738843
C   -1.886736   0.438542   0.012533
C   -1.199313   -0.664544   -0.641869
N   -1.718521   0.786733   1.273643
C   -2.682873   1.635963   2.033649
C   -2.371690   1.366766   3.512616
C   -1.499336   0.105684   3.504812
C   -0.721050   0.213228   2.194552
C   0.499688   1.125449   2.374378
N   1.150138   1.565260   1.131629
H   1.201740   0.579767   0.255960
C   0.592932   2.806522   0.535848
C   1.722997   3.400617   -0.321241
C   2.979426   2.585905   0.045882
C   2.596275   1.855093   1.323090
H   -3.922170   0.882844   -0.471088
H   -2.872983   2.294177   -0.491551
H   -2.804419   1.109385   -1.811275
H   -1.755968   -0.966341   -1.525854
H   -0.973326   -1.485996   0.030506
H   -2.579927   2.690731   1.774946
H   -3.694881   1.323891   1.777077
H   -1.845354   2.210960   3.956434
H   -3.284293   1.226959   4.088857
H   -2.118075   -0.791555   3.490276
H   -0.843072   0.043459   4.371891
H   -0.400049   -0.750842   1.807727
H   0.232487   2.012067   2.961460
H   1.225848   0.553278   2.956250
H   -0.301392   2.579855   -0.041192
H   0.310876   3.481928   1.349704
H   1.500942   3.331419   -1.385308
H   1.848792   4.455220   -0.084809
H   3.856784   3.211006   0.189921
H   3.208863   1.863468   -0.736143
H   3.128034   0.915037   1.466580
H   2.724291   2.481326   2.212925
C   0.574593   -0.620121   -1.372604
O   1.426801   -0.368338   -0.395945
C   0.728087   -1.980173   -2.036366
C   0.340215   -2.163834   -3.365008
C   0.416674   -3.409765   -3.974187
C   0.890396   -4.472083   -3.226134
N   0.935176   -5.818605   -3.845605
O   0.548001   -5.918836   -4.987578
O   1.350832   -6.729218   -3.159668
C   1.323303   -4.322805   -1.921122
C   1.245771   -3.068790   -1.330860
H   0.421774   0.172470   -2.111006
H   -0.016160   -1.321398   -3.945884
H   0.119015   -3.568612   -5.002504
H   1.708962   -5.184069   -1.391151
H   1.601197   -2.930755   -0.318351

