%chk=product.chk
#p opt freq B3LYP/6-31G(d) scrf=(iefpcm,solvent=acetone) Temperature=303.15

Converted from XYZ file

1 1
C   -2.096884   -1.845190   -1.913339
C   -1.244706   -2.587720   -0.939124
C   -0.614340   -3.845084   -1.435772
N   -1.137044   -2.152296   0.269021
C   -2.000869   -1.092003   0.851654
C   -2.045267   -1.416965   2.356123
C   -1.236612   -2.716771   2.519121
C   -0.268266   -2.683236   1.344140
C   0.893667   -1.713282   1.613683
N   1.700517   -1.403181   0.445083
H   1.759771   -2.809242   -0.595053
C   1.349617   -0.164653   -0.263749
C   2.515195   0.035376   -1.232886
C   3.713074   -0.659407   -0.543876
C   3.133927   -1.227319   0.750996
H   -3.109224   -2.261423   -1.891667
H   -2.154154   -0.778932   -1.710553
H   -1.711034   -2.003623   -2.919255
H   -1.294154   -4.234164   -2.195972
H   -0.518552   -4.595078   -0.651839
H   -1.565090   -0.115071   0.642438
H   -2.979736   -1.142614   0.383650
H   -1.606082   -0.604674   2.930692
H   -3.070276   -1.535564   2.697625
H   -1.883129   -3.591181   2.441114
H   -0.715883   -2.770159   3.473432
H   0.126886   -3.650268   1.045844
H   0.520112   -0.795417   2.087550
H   1.520245   -2.211120   2.355745
H   0.387715   -0.249606   -0.772342
H   1.282537   0.670259   0.449565
H   2.298353   -0.438734   -2.190162
H   2.693702   1.090628   -1.426974
H   4.531382   0.027664   -0.342010
H   4.101830   -1.461381   -1.168888
H   3.573562   -2.180171   1.044444
H   3.255781   -0.519041   1.581475
C   0.801100   -3.675902   -2.074367
O   1.781865   -3.671219   -1.081907
C   1.030214   -4.832687   -3.021640
C   0.516558   -4.772249   -4.313115
C   0.655334   -5.843012   -5.178417
C   1.315660   -6.968799   -4.722762
N   1.455743   -8.125634   -5.633683
O   0.977819   -8.019726   -6.742957
O   2.034159   -9.101732   -5.208102
C   1.851044   -7.051393   -3.452439
C   1.705584   -5.969457   -2.597064
H   0.816872   -2.744787   -2.659228
H   0.012491   -3.875339   -4.656897
H   0.270826   -5.819302   -6.187035
H   2.369922   -7.948675   -3.149188
H   2.128531   -6.002072   -1.603055

