%chk=reactant.chk
#p opt freq B3LYP/6-31G(d) scrf=(iefpcm,solvent=acetone) Temperature=303.15

Converted from XYZ file

1 1
C   -2.810368   -0.919820   -1.317043
C   -1.683471   -1.831956   -0.922453
C   -1.024555   -2.548406   -1.846657
N   -1.361267   -1.807580   0.429769
C   -2.396029   -1.508020   1.435224
C   -1.723478   -1.864414   2.751298
C   -0.877270   -3.077292   2.369136
C   -0.354342   -2.712946   0.973046
C   1.021472   -2.060024   1.115209
N   1.534540   -1.371328   -0.108436
H   1.342595   -1.964556   -0.925246
C   0.949802   0.003885   -0.391450
C   2.144593   0.902950   -0.723559
C   3.276787   -0.072118   -1.050228
C   3.028416   -1.194497   -0.066340
H   -3.752250   -1.237570   -0.868184
H   -2.620972   0.103773   -0.986144
H   -2.932498   -0.921081   -2.396449
H   -1.322060   -2.475234   -2.882286
H   -0.246489   -3.260177   -1.612912
H   -2.702100   -0.463996   1.385111
H   -3.282931   -2.131592   1.279660
H   -1.093913   -1.039744   3.093263
H   -2.442523   -2.079764   3.538622
H   -1.506773   -3.964689   2.298845
H   -0.075417   -3.292392   3.076082
H   -0.263400   -3.606627   0.350875
H   1.017192   -1.309805   1.907999
H   1.753134   -2.826782   1.373718
H   0.257424   -0.113088   -1.220548
H   0.390172   0.320629   0.483530
H   1.915273   1.576441   -1.545807
H   2.412453   1.512285   0.139788
H   4.265657   0.363352   -0.927921
H   3.192432   -0.449614   -2.070674
H   3.494538   -2.145027   -0.310770
H   3.288669   -0.901585   0.951933
C   2.135994   -3.706653   -3.305521
O   2.204638   -3.177270   -2.214005
C   1.913012   -5.144527   -3.518479
C   1.771686   -5.610870   -4.821268
C   1.545055   -6.957309   -5.055920
C   1.472919   -7.799927   -3.965092
N   1.230586   -9.244829   -4.205173
O   1.107396   -9.600607   -5.355485
O   1.172358   -9.962456   -3.231177
C   1.615807   -7.365733   -2.656811
C   1.836455   -6.021116   -2.436172
H   2.233493   -3.098723   -4.220948
H   1.836893   -4.920037   -5.652823
H   1.426770   -7.355963   -6.051896
H   1.554644   -8.079438   -1.849262
H   1.959552   -5.638760   -1.431893

