%chk=knarr_saddle.chk
# B3LYP/6-31G(d) Opt=(TS,CalcAll,MaxStep=5) Freq SCRF=(IEFPCM,Solvent=Acetone) Temperature=303.15

Converted from XYZ file

1 1
C   -1.529170   -1.503702   -1.350035
C   -1.544851   -0.135919   -0.755729
C   -0.840382   0.874655   -1.469143
N   -2.064200   0.018254   0.445560
C   -2.791488   -1.073248   1.142782
C   -3.904262   -0.354898   1.888545
C   -3.228663   0.937201   2.319710
C   -2.338995   1.321552   1.127285
C   -1.120577   2.162359   1.539017
N   0.092195   1.417440   1.893147
H   0.522896   0.729106   0.975407
C   0.030696   0.562986   3.102515
C   1.495663   0.227191   3.379882
C   2.298563   1.400947   2.772529
C   1.249364   2.318553   2.145874
H   -2.540696   -1.855640   -1.559783
H   -0.966243   -1.496911   -2.277136
H   -1.057264   -2.199021   -0.655797
H   -0.999150   1.903600   -1.152674
H   -0.894036   0.760766   -2.546101
H   -3.165094   -1.792836   0.423864
H   -2.116823   -1.593396   1.827219
H   -4.282997   -0.940121   2.723908
H   -4.736554   -0.151054   1.212849
H   -3.928503   1.736465   2.559641
H   -2.618393   0.761645   3.206711
H   -2.922750   1.924764   0.426617
H   -1.422405   2.773584   2.398446
H   -0.844752   2.853958   0.743535
H   -0.415509   1.143430   3.916369
H   -0.584659   -0.314669   2.913747
H   1.762626   -0.707630   2.890832
H   1.670033   0.107457   4.446314
H   2.980618   1.033812   2.009440
H   2.882044   1.936002   3.517092
H   0.931889   3.113875   2.825404
H   1.560817   2.762599   1.200743
C   0.997741   0.453158   -1.127296
O   1.134395   0.039859   0.112638
C   1.550089   -0.482693   -2.195321
C   1.582006   -0.094611   -3.536124
C   2.148622   -0.907622   -4.504396
C   2.703340   -2.111402   -4.111208
N   3.332326   -2.981822   -5.133034
O   3.301669   -2.599996   -6.284558
O   3.836119   -4.014915   -4.751779
C   2.708181   -2.523491   -2.793049
C   2.123465   -1.703028   -1.835669
H   1.301459   1.486261   -1.336001
H   1.174576   0.864931   -3.832563
H   2.175071   -0.625041   -5.546907
H   3.171395   -3.465570   -2.537173
H   2.140560   -1.997171   -0.796148

