%chk=product.chk
#p opt freq B3LYP/6-31G(d) scrf=(iefpcm,solvent=acetone) Temperature=303.15

Converted from XYZ file

1 1
C   1.272568   -4.029496   -2.483335
C   1.128657   -2.601729   -2.082190
C   1.803596   -1.581985   -2.930061
N   0.427026   -2.282926   -1.049128
C   -0.349818   -3.280786   -0.270084
C   -1.504053   -2.467291   0.289806
C   -0.848485   -1.129375   0.602993
C   0.138139   -0.892779   -0.546222
C   1.354518   -0.036659   -0.148082
N   2.504732   -0.747926   0.378321
H   3.280504   -1.837260   -0.801898
C   2.326254   -1.390230   1.688374
C   3.754811   -1.702697   2.144581
C   4.640111   -0.697050   1.373449
C   3.644564   0.162988   0.601389
H   0.329326   -4.380923   -2.912885
H   2.049346   -4.130253   -3.235714
H   1.519117   -4.659262   -1.630341
H   1.480349   -0.575695   -2.685414
H   1.520994   -1.781478   -3.966131
H   -0.662114   -4.095164   -0.915817
H   0.291245   -3.682858   0.516895
H   -1.948886   -2.940636   1.161864
H   -2.281184   -2.355162   -0.468223
H   -1.558639   -0.307936   0.670443
H   -0.314388   -1.180591   1.551391
H   -0.380874   -0.380360   -1.359016
H   0.976654   0.697076   0.581494
H   1.700717   0.543576   -1.004055
H   1.837958   -0.691184   2.383394
H   1.704742   -2.282300   1.611672
H   4.024822   -2.726441   1.890384
H   3.847650   -1.599923   3.223469
H   5.299310   -1.220324   0.682419
H   5.262116   -0.094525   2.031075
H   3.321872   1.026995   1.198826
H   4.028914   0.532413   -0.350540
C   3.354967   -1.738080   -2.753883
O   3.638969   -2.390337   -1.540337
C   3.997524   -2.492310   -3.897991
C   3.847479   -2.018072   -5.199784
C   4.436214   -2.676701   -6.262995
C   5.176822   -3.815104   -6.000209
N   5.806196   -4.529493   -7.131848
O   5.636967   -4.069584   -8.240593
O   6.445515   -5.526011   -6.873436
C   5.353838   -4.303225   -4.722168
C   4.759207   -3.630111   -3.663867
H   3.772074   -0.723615   -2.752694
H   3.278420   -1.115444   -5.392924
H   4.336329   -2.324399   -7.278569
H   5.950302   -5.190037   -4.566272
H   4.893251   -3.982730   -2.651741

