%chk=reactant.chk
#p opt freq B3LYP/6-31G(d) scrf=(iefpcm,solvent=acetone) Temperature=303.15

Converted from XYZ file

1 1
C   0.830344   -2.820820   -3.173244
C   0.579722   -1.617877   -2.307440
C   0.657669   -0.379175   -2.815496
N   0.318944   -1.886376   -0.965369
C   -0.307075   -3.154018   -0.538236
C   -1.398342   -2.722506   0.434247
C   -0.792232   -1.486495   1.088273
C   -0.078816   -0.796328   -0.078241
C   1.103264   0.094238   0.339961
N   2.404668   -0.624120   0.351814
H   2.530811   -1.101961   -0.556693
C   2.589089   -1.657314   1.418469
C   4.087620   -1.926150   1.408219
C   4.734245   -0.592476   0.974720
C   3.574770   0.299533   0.523036
H   -0.097867   -3.347435   -3.398807
H   1.263814   -2.512211   -4.122256
H   1.504300   -3.528914   -2.687456
H   0.425686   0.515349   -2.258167
H   0.891149   -0.250503   -3.861951
H   -0.706442   -3.704275   -1.385305
H   0.427271   -3.799378   -0.044694
H   -1.660095   -3.503435   1.145151
H   -2.299451   -2.450839   -0.118112
H   -1.529221   -0.829945   1.547361
H   -0.083067   -1.777528   1.866018
H   -0.794220   -0.141463   -0.592417
H   0.942703   0.499873   1.340117
H   1.233164   0.930165   -0.343952
H   2.255112   -1.208808   2.355200
H   1.976322   -2.524089   1.189550
H   4.317646   -2.707674   0.687594
H   4.426839   -2.258014   2.386471
H   5.439441   -0.754531   0.163653
H   5.272122   -0.117065   1.791597
H   3.293494   1.025203   1.285445
H   3.741178   0.820669   -0.416846
C   3.889450   -1.765841   -2.955665
O   3.748671   -1.928438   -1.758781
C   4.462951   -2.770202   -3.861947
C   4.535942   -2.478431   -5.220364
C   5.037914   -3.417803   -6.106234
C   5.456592   -4.629522   -5.593117
N   5.987545   -5.647636   -6.534536
O   6.004913   -5.356604   -7.709607
O   6.362209   -6.695909   -6.057685
C   5.402672   -4.945474   -4.244771
C   4.897538   -4.001828   -3.372614
H   3.559251   -0.825895   -3.428441
H   4.197448   -1.516377   -5.585767
H   5.106162   -3.230257   -7.167284
H   5.750082   -5.910924   -3.908865
H   4.832355   -4.207573   -2.312735

