%chk=knarr_saddle.chk
# B3LYP/6-31G(d) Opt=(TS,CalcAll,MaxStep=5) Freq SCRF=(IEFPCM,Solvent=Acetone) Temperature=303.15

Converted from XYZ file

1 1
C   1.620536   -0.185426   -1.522444
C   1.680852   -0.123477   -0.038118
C   1.721938   1.191090   0.565320
N   1.490845   -1.200415   0.674548
C   1.909598   -1.365518   2.098876
C   1.739197   -2.859923   2.391876
C   1.690214   -3.521229   1.014441
C   1.032342   -2.485501   0.108941
C   -0.516570   -2.571042   -0.025062
N   -1.344133   -1.622964   0.746163
H   -0.934746   -0.379183   0.551794
C   -1.480934   -1.892802   2.200610
C   -2.799877   -1.239202   2.583242
C   -3.697334   -1.555599   1.388418
C   -2.748532   -1.574643   0.188142
H   1.932063   0.761917   -1.951475
H   2.250850   -0.979071   -1.921794
H   0.586426   -0.364633   -1.820116
H   1.917640   1.198170   1.638011
H   2.372520   1.887296   0.037559
H   2.951496   -1.057157   2.165556
H   1.328551   -0.733582   2.765344
H   2.556894   -3.241452   2.999548
H   0.818973   -3.046521   2.940914
H   2.700780   -3.708724   0.649134
H   1.157546   -4.471677   1.009336
H   1.423218   -2.581083   -0.900047
H   -0.767157   -2.399917   -1.071246
H   -0.830235   -3.596958   0.201947
H   -0.633905   -1.475765   2.741170
H   -1.517773   -2.973358   2.377070
H   -2.665501   -0.163412   2.698876
H   -3.190936   -1.633376   3.519957
H   -4.165386   -2.530944   1.518510
H   -4.492699   -0.827046   1.259150
H   -2.919264   -2.442806   -0.445731
H   -2.814982   -0.676808   -0.423578
C   0.065892   1.736390   0.265316
O   -0.851578   0.741896   0.133213
C   0.102787   2.682773   -0.945071
C   0.885281   3.839151   -0.895076
C   1.005919   4.674220   -1.992096
C   0.316334   4.341081   -3.145309
N   0.472741   5.193554   -4.346045
O   -0.140710   4.874682   -5.343009
O   1.216287   6.145917   -4.256910
C   -0.506038   3.235544   -3.221698
C   -0.609508   2.407403   -2.110086
H   -0.053596   2.332101   1.180299
H   1.421254   4.092001   0.011600
H   1.615101   5.566577   -1.972569
H   -1.049804   3.039333   -4.135709
H   -1.252875   1.540119   -2.141689

