%chk=product.chk
#p opt freq B3LYP/6-31G(d) scrf=(iefpcm,solvent=acetone) Temperature=303.15

Converted from XYZ file

1 1
C   1.248683   4.296324   -4.397887
C   1.302107   4.444216   -2.914257
C   1.595754   5.805646   -2.355385
N   1.123458   3.441726   -2.130106
C   1.186853   3.522343   -0.641875
C   0.896137   2.109623   -0.151172
C   1.233692   1.218680   -1.347088
C   0.851311   2.040932   -2.575466
C   -0.603975   1.901360   -3.026573
N   -1.553225   2.255066   -1.991484
H   -1.336402   6.691971   -1.417551
C   -2.233121   1.122407   -1.356958
C   -3.374779   1.767263   -0.564122
C   -3.578525   3.149904   -1.226308
C   -2.641070   3.130205   -2.429259
H   1.868407   5.055363   -4.869670
H   1.559204   3.311223   -4.735046
H   0.225407   4.467268   -4.740295
H   1.947602   5.740249   -1.329705
H   2.387039   6.250549   -2.959546
H   2.194294   3.840617   -0.371188
H   0.464382   4.260599   -0.304344
H   1.499578   1.869999   0.721428
H   -0.152482   2.023580   0.116302
H   2.303275   1.003931   -1.370932
H   0.707949   0.266046   -1.332668
H   1.507218   1.815268   -3.415234
H   -0.763554   2.535970   -3.901762
H   -0.738190   0.867837   -3.372235
H   -1.550343   0.548924   -0.728572
H   -2.629122   0.437759   -2.121971
H   -3.109080   1.878267   0.485996
H   -4.271458   1.152559   -0.606728
H   -4.611449   3.329602   -1.517889
H   -3.285234   3.943662   -0.539378
H   -3.151123   2.714931   -3.313221
H   -2.250673   4.116185   -2.686349
C   0.370856   6.743111   -2.379485
O   -0.639942   6.068681   -1.654097
C   -0.050138   7.135817   -3.783363
C   0.806278   7.928650   -4.544680
C   0.480949   8.275841   -5.843340
C   -0.718885   7.822801   -6.362305
N   -1.070197   8.174976   -7.756236
O   -2.130291   7.768019   -8.178866
O   -0.270027   8.839432   -8.377082
C   -1.602191   7.060637   -5.625934
C   -1.258757   6.717722   -4.324930
H   0.679234   7.650160   -1.849780
H   1.735908   8.289655   -4.119291
H   1.130862   8.888854   -6.450286
H   -2.534847   6.745193   -6.070688
H   -1.938702   6.118481   -3.734727

