%chk=reactant.chk
#p opt freq B3LYP/6-31G(d) scrf=(iefpcm,solvent=acetone) Temperature=303.15

Converted from XYZ file

1 1
C   1.091121   4.052309   -4.251363
C   1.235475   4.065955   -2.754890
C   1.652220   5.167657   -2.112352
N   0.962311   2.886527   -2.073668
C   1.602177   2.620728   -0.784636
C   1.479497   1.106130   -0.600791
C   1.337230   0.577313   -2.029595
C   0.494651   1.663236   -2.698823
C   -1.009702   1.384321   -2.458453
N   -1.835791   2.612290   -2.248615
H   -1.559560   3.350435   -2.907278
C   -1.685843   3.237381   -0.871422
C   -3.091681   3.651705   -0.470683
C   -3.956682   2.558928   -1.089219
C   -3.324407   2.375131   -2.458708
H   1.308733   5.041347   -4.647282
H   1.792456   3.347215   -4.702104
H   0.085451   3.779213   -4.580342
H   1.799792   5.197581   -1.041917
H   1.921105   6.047297   -2.678288
H   2.644907   2.948768   -0.829901
H   1.126811   3.172740   0.031849
H   2.337548   0.687642   -0.080258
H   0.595252   0.857512   -0.008697
H   2.310591   0.531367   -2.518328
H   0.885111   -0.413251   -2.084670
H   0.662499   1.698881   -3.772864
H   -1.418310   0.860666   -3.321670
H   -1.167644   0.757295   -1.579785
H   -0.968553   4.050060   -0.939295
H   -1.291650   2.467721   -0.209259
H   -3.339718   4.622763   -0.901697
H   -3.189900   3.722326   0.610527
H   -3.892101   1.637732   -0.506982
H   -5.006206   2.831743   -1.170562
H   -3.470254   1.392440   -2.897372
H   -3.662757   3.137014   -3.158123
C   -1.284124   6.168989   -3.175042
O   -1.832935   5.116290   -3.445706
C   -0.834823   7.142392   -4.180017
C   -0.157649   8.281862   -3.756225
C   0.293088   9.204811   -4.685280
C   0.044537   8.953222   -6.020492
N   0.524895   9.937552   -7.022678
O   0.302067   9.691710   -8.187266
O   1.104666   10.913926   -6.602642
C   -0.630598   7.830709   -6.471439
C   -1.072189   6.916034   -5.535516
H   -1.094947   6.446220   -2.125353
H   0.021230   8.443438   -2.699983
H   0.823774   10.099999   -4.398432
H   -0.795653   7.696260   -7.530021
H   -1.606859   6.026558   -5.839978

