%chk=knarr_saddle.chk
# B3LYP/6-31G(d) Opt=(TS,CalcAll,MaxStep=5) Freq SCRF=(IEFPCM,Solvent=Acetone) Temperature=303.15

Converted from XYZ file

1 1
C   -3.628126   -0.806408   -0.435094
C   -2.199440   -0.795155   -0.891619
C   -1.598089   0.384957   -1.191383
N   -1.558607   -2.001486   -0.882503
C   -2.323239   -3.272751   -0.836264
C   -1.383683   -4.320522   -1.434104
C   -0.467048   -3.491551   -2.331126
C   -0.250732   -2.213917   -1.511611
C   0.866588   -2.459820   -0.494232
N   1.410090   -1.271165   0.210410
H   0.626561   -0.687829   0.620382
C   2.250185   -1.663190   1.392797
C   3.144910   -0.451955   1.677666
C   2.950864   0.493592   0.474782
C   2.293694   -0.373803   -0.588827
H   -4.255383   -1.423194   -1.077069
H   -3.707841   -1.209111   0.577865
H   -4.031418   0.202390   -0.439343
H   -2.200443   1.275686   -1.293771
H   -0.577049   0.431628   -1.534346
H   -2.628466   -3.508920   0.182688
H   -3.225284   -3.194412   -1.445375
H   -0.816373   -4.831213   -0.654411
H   -1.932182   -5.080998   -1.986175
H   -0.980153   -3.227769   -3.257199
H   0.462151   -3.996135   -2.592031
H   -0.006609   -1.373751   -2.160520
H   0.498810   -3.129927   0.281543
H   1.712879   -2.941753   -0.985749
H   1.578102   -1.927393   2.206139
H   2.824611   -2.543439   1.105228
H   2.866115   0.033941   2.608738
H   4.180341   -0.770033   1.774086
H   3.884842   0.918019   0.116447
H   2.293965   1.321263   0.739692
H   1.705669   0.178683   -1.318050
H   3.016488   -1.003377   -1.111821
C   -1.095392   0.986268   1.058386
O   -0.451440   0.021190   1.471027
C   -0.475112   2.349528   0.871349
C   -0.516273   3.051725   2.074925
C   -0.060946   4.352212   2.156239
C   0.444704   4.935343   1.011581
N   0.872602   6.352210   1.087245
O   0.758507   6.905501   2.159204
O   1.296751   6.860367   0.072052
C   0.534213   4.260097   -0.191292
C   0.065218   2.951160   -0.262968
H   -2.180127   1.014929   1.220109
H   -0.926843   2.568426   2.952228
H   -0.113771   4.912807   3.076604
H   0.944823   4.766586   -1.054819
H   0.106385   2.442474   -1.217708

