%chk=product.chk
#p opt freq B3LYP/6-31G(d) scrf=(iefpcm,solvent=acetone) Temperature=303.15

Converted from XYZ file

1 1
C   -3.683261   1.330308   0.157628
C   -2.199819   1.401450   0.039130
C   -1.583354   2.750438   -0.087914
N   -1.505815   0.317646   0.078092
C   -2.133569   -1.027307   0.206842
C   -0.982202   -2.019146   0.059232
C   0.086535   -1.211677   -0.676667
C   -0.021516   0.172489   -0.041202
C   0.655045   0.211254   1.332747
N   0.830468   1.538180   1.895136
H   -0.807492   2.306566   2.270356
C   1.289826   1.467683   3.296746
C   1.751665   2.888665   3.596477
C   2.245767   3.424590   2.235507
C   1.881028   2.327937   1.228506
H   -4.104452   0.570819   -0.500357
H   -3.944644   1.068404   1.186044
H   -4.134367   2.289645   -0.077269
H   -2.037256   3.252593   -0.946116
H   -0.509948   2.696649   -0.239470
H   -2.657742   -1.091514   1.159553
H   -2.861067   -1.138843   -0.596376
H   -0.623415   -2.345716   1.034316
H   -1.291959   -2.904877   -0.489461
H   -0.145803   -1.147346   -1.740985
H   1.086979   -1.625919   -0.575377
H   0.365834   0.951495   -0.692536
H   0.068085   -0.382786   2.037693
H   1.629354   -0.290236   1.226954
H   0.482974   1.119719   3.943728
H   2.125216   0.758422   3.380470
H   0.915976   3.485522   3.960265
H   2.524407   2.904388   4.361683
H   3.318290   3.608955   2.229171
H   1.752595   4.362282   1.985003
H   1.539822   2.733009   0.274071
H   2.747727   1.683257   1.023752
C   -1.886198   3.518673   1.219638
O   -1.737503   2.635985   2.312269
C   -1.037881   4.767734   1.369694
C   -0.886433   5.306319   2.646277
C   -0.119531   6.440868   2.846112
C   0.487386   7.028549   1.750926
N   1.328351   8.228580   1.956174
O   1.465638   8.621014   3.094160
O   1.825648   8.731711   0.971873
C   0.340313   6.533955   0.471368
C   -0.429950   5.394920   0.287497
H   -2.938384   3.815215   1.217579
H   -1.366191   4.822341   3.486410
H   0.015586   6.871548   3.827447
H   0.826293   7.032698   -0.353973
H   -0.545741   5.010240   -0.717675

