%chk=reactant.chk
#p opt freq B3LYP/6-31G(d) scrf=(iefpcm,solvent=acetone) Temperature=303.15

Converted from XYZ file

1 1
C   -2.814546   2.652831   0.926842
C   -1.644594   2.166998   0.116181
C   -0.929936   3.019173   -0.626537
N   -1.395529   0.790735   0.254415
C   -2.579201   -0.101248   0.277031
C   -2.037134   -1.463460   -0.128742
C   -0.928221   -1.098469   -1.113397
C   -0.299615   0.141440   -0.470903
C   0.778019   -0.297087   0.520186
N   1.260768   0.825651   1.371229
H   0.430445   1.324778   1.715552
C   2.051989   0.370557   2.587170
C   3.434064   0.987739   2.425677
C   3.148622   2.276785   1.659863
C   2.119213   1.830513   0.637062
H   -3.758997   2.299937   0.510818
H   -2.755661   2.281981   1.952355
H   -2.841356   3.739974   0.937046
H   -1.196340   4.065870   -0.628643
H   -0.124237   2.725841   -1.283270
H   -3.050498   -0.107038   1.258595
H   -3.318206   0.238181   -0.455340
H   -1.636837   -1.996013   0.735860
H   -2.805680   -2.092985   -0.571087
H   -1.356442   -0.824938   -2.078370
H   -0.208431   -1.899715   -1.282542
H   0.129354   0.799435   -1.225693
H   0.359254   -1.041978   1.196286
H   1.643739   -0.727612   0.015179
H   1.531625   0.760759   3.458201
H   2.048379   -0.715212   2.620248
H   3.907208   1.155541   3.390267
H   4.083512   0.333702   1.841231
H   4.030173   2.697520   1.180931
H   2.721609   3.031330   2.322344
H   1.474999   2.616462   0.255505
H   2.587234   1.307112   -0.197101
C   -0.760826   3.541376   3.504137
O   -0.041648   2.671129   3.057476
C   -0.823920   4.915438   2.980656
C   -1.728083   5.810100   3.543718
C   -1.822031   7.103296   3.053384
C   -0.994658   7.459566   2.007130
N   -1.085119   8.841497   1.471717
O   -1.884340   9.585007   1.993927
O   -0.351678   9.123171   0.549595
C   -0.081135   6.591976   1.429880
C   -0.000401   5.306696   1.926099
H   -1.428278   3.323288   4.354995
H   -2.361345   5.496024   4.364476
H   -2.512513   7.825198   3.462888
H   0.537375   6.936216   0.614505
H   0.691163   4.592280   1.502113

