%chk=knarr_saddle.chk
# B3LYP/6-31G(d) Opt=(TS,CalcAll,MaxStep=5) Freq SCRF=(IEFPCM,Solvent=Acetone) Temperature=303.15

Converted from XYZ file

1 1
C   1.287386   0.300410   1.542555
C   1.495208   -0.906251   0.694806
C   0.801903   -2.100651   1.069908
N   2.096537   -0.827081   -0.461943
C   2.544496   -2.015009   -1.236956
C   3.542325   -1.459977   -2.266163
C   3.819072   -0.020795   -1.810400
C   2.496074   0.398712   -1.174978
C   1.483123   0.721199   -2.275876
N   0.136902   1.101615   -1.800336
H   -0.230837   0.289769   -1.127965
C   -0.848829   1.137721   -2.930533
C   -1.987021   1.991368   -2.400957
C   -1.303977   3.034415   -1.498998
C   0.073770   2.448538   -1.149815
H   0.380323   0.810240   1.209942
H   1.108467   -0.003154   2.570826
H   2.123908   0.993359   1.512538
H   0.709706   -2.234919   2.142002
H   1.112428   -3.009910   0.567510
H   1.688977   -2.509163   -1.694874
H   3.019305   -2.707763   -0.543561
H   4.449720   -2.057387   -2.303216
H   3.112726   -1.474149   -3.266807
H   4.603266   0.004000   -1.054230
H   4.118428   0.635788   -2.625728
H   2.595645   1.229258   -0.480439
H   1.351488   -0.150345   -2.916954
H   1.875503   1.536264   -2.889680
H   -1.130275   0.112512   -3.162332
H   -0.363090   1.592583   -3.797217
H   -2.545921   2.453364   -3.212080
H   -2.677502   1.370272   -1.831898
H   -1.177335   3.983963   -2.015790
H   -1.889610   3.230450   -0.603557
H   0.227800   2.329768   -0.081656
H   0.887584   3.058478   -1.545640
C   -0.840945   -1.724452   0.410059
O   -0.804436   -0.954536   -0.660884
C   -1.656626   -1.240574   1.600396
C   -1.815412   -2.077368   2.704593
C   -2.529714   -1.668606   3.813525
C   -3.101437   -0.408280   3.796410
N   -3.837255   0.049268   4.992073
O   -3.908784   -0.716952   5.929367
O   -4.316171   1.163552   4.960384
C   -3.015586   0.424643   2.699437
C   -2.287645   -0.001975   1.594963
H   -1.117981   -2.767401   0.201235
H   -1.372289   -3.067277   2.695173
H   -2.643940   -2.298106   4.682111
H   -3.513343   1.382720   2.723063
H   -2.226104   0.617851   0.708590

