%chk=product.chk
#p opt freq B3LYP/6-31G(d) scrf=(iefpcm,solvent=acetone) Temperature=303.15

Converted from XYZ file

1 1
C   0.207624   -2.185213   4.339906
C   0.351418   -3.301488   3.364773
C   -0.408047   -4.553442   3.635491
N   1.011906   -3.184621   2.266394
C   1.290655   -4.308018   1.322078
C   2.289981   -3.738797   0.308145
C   2.762141   -2.415029   0.920958
C   1.540503   -1.926198   1.687579
C   0.474036   -1.354574   0.746107
N   -0.754820   -0.964905   1.413116
H   -1.631942   -2.813689   1.920367
C   -1.837604   -0.711932   0.435455
C   -2.852601   0.165934   1.182757
C   -2.090700   0.681088   2.421412
C   -0.643323   0.316738   2.127453
H   -0.710965   -1.635337   4.117774
H   0.100135   -2.597557   5.341406
H   1.043732   -1.491965   4.321671
H   -0.376599   -4.792245   4.695957
H   -0.013939   -5.396673   3.077423
H   0.353801   -4.636000   0.876170
H   1.718773   -5.127367   1.895828
H   3.112220   -4.430043   0.140655
H   1.806417   -3.572664   -0.652482
H   3.591016   -2.578208   1.610381
H   3.085803   -1.693391   0.173553
H   1.782729   -1.221881   2.478251
H   0.228468   -2.107456   -0.006584
H   0.927711   -0.505630   0.212525
H   -2.251125   -1.654842   0.073883
H   -1.434173   -0.171148   -0.430642
H   -3.184735   0.984183   0.547182
H   -3.743224   -0.394061   1.464033
H   -2.218083   1.748853   2.585117
H   -2.427055   0.167837   3.323251
H   -0.026129   0.233097   3.021863
H   -0.180559   1.068821   1.470355
C   -1.887771   -4.314138   3.171202
O   -1.900175   -3.753369   1.880290
C   -2.708845   -3.532086   4.182452
C   -2.737693   -3.919866   5.521979
C   -3.474369   -3.206697   6.450774
C   -4.182353   -2.099279   6.020049
N   -4.947417   -1.310158   7.009810
O   -4.945150   -1.705553   8.154720
O   -5.516580   -0.319187   6.605894
C   -4.205559   -1.710003   4.697507
C   -3.468087   -2.441898   3.777848
H   -2.330710   -5.306330   3.068701
H   -2.194913   -4.796475   5.854505
H   -3.509210   -3.493660   7.491459
H   -4.795406   -0.853777   4.402602
H   -3.501756   -2.168437   2.733080

