%chk=reactant.chk
#p opt freq B3LYP/6-31G(d) scrf=(iefpcm,solvent=acetone) Temperature=303.15

Converted from XYZ file

1 1
C   0.224183   -1.712742   4.247529
C   0.418129   -3.016615   3.528214
C   0.148705   -4.174082   4.147826
N   0.860680   -2.972040   2.202554
C   1.563718   -4.162548   1.685334
C   2.582376   -3.636178   0.671483
C   2.802510   -2.187239   1.109150
C   1.407359   -1.767639   1.576498
C   0.567729   -1.375963   0.358973
N   -0.850631   -1.092660   0.708599
H   -1.164308   -1.803067   1.389363
C   -1.781060   -1.201006   -0.479022
C   -2.839941   -0.144218   -0.230341
C   -2.014973   0.995958   0.362871
C   -1.089743   0.270964   1.331266
H   -0.466844   -1.052795   3.719091
H   -0.190203   -1.902821   5.234454
H   1.166852   -1.178344   4.379454
H   -0.173612   -4.163539   5.178219
H   0.270160   -5.137473   3.674459
H   0.869619   -4.882152   1.248642
H   2.067263   -4.655486   2.520867
H   3.499158   -4.220893   0.686986
H   2.193972   -3.683147   -0.346829
H   3.486865   -2.144350   1.957192
H   3.202733   -1.549374   0.321064
H   1.443060   -0.938309   2.280766
H   0.554940   -2.199917   -0.354241
H   0.968223   -0.491938   -0.139971
H   -2.145787   -2.223821   -0.536831
H   -1.196772   -0.971763   -1.370020
H   -3.358633   0.127846   -1.146643
H   -3.575114   -0.505602   0.490001
H   -1.442555   1.499123   -0.418398
H   -2.614632   1.745236   0.874455
H   -1.580800   0.100819   2.285800
H   -0.132225   0.757809   1.498615
C   -2.714468   -3.264638   3.258452
O   -2.512749   -2.305152   2.535566
C   -3.221101   -3.158698   4.636034
C   -3.447721   -4.326057   5.358064
C   -3.924869   -4.257896   6.656519
C   -4.156584   -3.007762   7.196721
N   -4.663794   -2.922871   8.589499
O   -4.875089   -3.966927   9.164873
O   -4.828341   -1.814518   9.049807
C   -3.939437   -1.828583   6.503116
C   -3.468753   -1.911132   5.206865
H   -2.537160   -4.286119   2.890656
H   -3.247291   -5.288755   4.903687
H   -4.117067   -5.141319   7.246558
H   -4.143829   -0.882917   6.982659
H   -3.294679   -1.015418   4.625940

