%chk=knarr_saddle.chk
# B3LYP/6-31G(d) Opt=(TS,CalcAll,MaxStep=5) Freq SCRF=(IEFPCM,Solvent=Acetone) Temperature=303.15

Converted from XYZ file

1 1
C   0.890740   2.999699   0.178249
C   1.219224   1.588689   0.552378
C   0.690605   1.052888   1.761279
N   1.817931   0.805594   -0.312511
C   2.361212   -0.530571   0.028112
C   3.484870   -0.711124   -0.980314
C   2.926341   -0.053657   -2.236659
C   2.140986   1.157766   -1.717924
C   0.918115   1.530886   -2.561777
N   -0.294330   0.708649   -2.335788
H   -0.451905   0.438509   -1.238983
C   -0.331646   -0.627163   -3.021579
C   -1.816590   -0.911905   -3.301814
C   -2.578693   0.325698   -2.799906
C   -1.527430   1.417685   -2.790675
H   0.819818   3.613773   1.072164
H   1.634923   3.435714   -0.485861
H   -0.083435   3.040691   -0.318693
H   0.444422   1.801865   2.508252
H   1.199254   0.197283   2.185243
H   2.712462   -0.527035   1.055778
H   1.570685   -1.275323   -0.073397
H   4.380634   -0.190344   -0.638793
H   3.739014   -1.758111   -1.128037
H   3.695816   0.256744   -2.940920
H   2.264292   -0.744855   -2.756783
H   2.796813   2.032430   -1.709624
H   1.194604   1.466885   -3.617628
H   0.633686   2.563690   -2.375372
H   0.252233   -0.562974   -3.939715
H   0.120350   -1.358634   -2.355898
H   -2.146678   -1.813352   -2.792947
H   -1.969460   -1.058926   -4.369545
H   -2.948949   0.162635   -1.788993
H   -3.420370   0.586650   -3.436952
H   -1.343784   1.821312   -3.789646
H   -1.735778   2.240960   -2.107997
C   -0.878881   0.293844   1.158602
O   -0.727345   -0.252716   -0.025219
C   -1.195503   -0.626648   2.320101
C   -1.690475   -0.083904   3.503592
C   -1.915034   -0.881331   4.612435
C   -1.643504   -2.233533   4.512191
N   -1.856510   -3.090605   5.699319
O   -1.619025   -4.274106   5.583151
O   -2.248501   -2.550989   6.711812
C   -1.183522   -2.810472   3.343291
C   -0.961503   -1.996247   2.241302
H   -1.520573   1.186723   1.196389
H   -1.904608   0.977134   3.561268
H   -2.291042   -0.478646   5.541531
H   -1.008010   -3.876437   3.313328
H   -0.615949   -2.424789   1.310183

