%chk=product.chk
#p opt freq B3LYP/6-31G(d) scrf=(iefpcm,solvent=acetone) Temperature=303.15

Converted from XYZ file

1 1
C   0.936090   2.781015   6.346065
C   1.327138   1.350354   6.495411
C   0.813040   0.629904   7.688608
N   1.973373   0.731096   5.570367
C   2.518335   -0.646812   5.679027
C   3.653102   -0.637731   4.669019
C   3.092790   0.202885   3.526253
C   2.243937   1.284798   4.207104
C   0.947116   1.651790   3.463994
N   -0.191482   0.783353   3.732821
H   -0.529406   -0.074826   5.399838
C   -0.202661   -0.491442   2.986769
C   -1.659593   -0.969868   3.058328
C   -2.473796   0.290866   3.421389
C   -1.459823   1.423081   3.333299
H   0.947483   3.258899   7.323786
H   1.584144   3.331671   5.670326
H   -0.088606   2.837318   5.967240
H   0.779833   1.295608   8.549988
H   1.391984   -0.253325   7.943618
H   2.845219   -0.838067   6.696031
H   1.725420   -1.350164   5.423446
H   4.534960   -0.167016   5.106153
H   3.927168   -1.644278   4.362099
H   3.868601   0.653286   2.910953
H   2.470348   -0.406962   2.873099
H   2.839707   2.190897   4.335321
H   1.189838   1.670991   2.391583
H   0.650704   2.666652   3.725399
H   0.105255   -0.316712   1.946577
H   0.489229   -1.210879   3.425085
H   -1.779879   -1.739660   3.817914
H   -1.967728   -1.397424   2.106853
H   -2.864059   0.211305   4.436042
H   -3.318173   0.454078   2.756056
H   -1.385142   1.804096   2.304990
H   -1.684333   2.266317   3.988532
C   -0.639954   0.152587   7.344190
O   -0.623289   -0.649227   6.192613
C   -1.180325   -0.626004   8.517498
C   -1.822846   0.044896   9.551504
C   -2.291436   -0.648160   10.655227
C   -2.101291   -2.015794   10.697260
N   -2.602445   -2.767226   11.869599
O   -2.410684   -3.963789   11.885533
O   -3.169706   -2.133790   12.733162
C   -1.470389   -2.710015   9.682563
C   -1.007420   -2.003755   8.584350
H   -1.268006   1.039228   7.193447
H   -1.975966   1.116394   9.493152
H   -2.801785   -0.152218   11.467300
H   -1.354774   -3.780834   9.761187
H   -0.529814   -2.527387   7.767634

