%chk=reactant.chk
#p opt freq B3LYP/6-31G(d) scrf=(iefpcm,solvent=acetone) Temperature=303.15

Converted from XYZ file

1 1
C   1.000394   3.243851   5.920117
C   1.167337   1.914941   6.605350
C   0.909387   1.807915   7.916867
N   1.532628   0.825584   5.811798
C   2.056253   -0.382964   6.469772
C   3.198755   -0.845564   5.574036
C   2.739969   -0.400369   4.194836
C   2.094183   0.961841   4.461826
C   1.052473   1.356716   3.407311
N   -0.266977   0.694875   3.629488
H   -0.389187   0.590812   4.651945
C   -0.444757   -0.697105   3.048972
C   -1.828774   -0.704682   2.392155
C   -2.546339   0.504633   2.993881
C   -1.424558   1.513101   3.128529
H   0.875911   4.022446   6.667172
H   1.862182   3.506270   5.305097
H   0.111992   3.261598   5.283062
H   0.625748   2.689766   8.471817
H   0.998596   0.886278   8.471420
H   2.407768   -0.141354   7.471106
H   1.270996   -1.139782   6.560362
H   4.118081   -0.327252   5.851234
H   3.381907   -1.915625   5.641231
H   3.540610   -0.325617   3.460527
H   2.002574   -1.107857   3.811907
H   2.872614   1.733219   4.428133
H   1.401653   1.098666   2.406815
H   0.866859   2.427101   3.428510
H   0.359913   -0.882645   2.343002
H   -0.368573   -1.398711   3.875975
H   -2.351168   -1.639912   2.578084
H   -1.731372   -0.585861   1.312850
H   -2.954813   0.267713   3.976002
H   -3.350264   0.877002   2.363326
H   -1.135961   1.928205   2.161983
H   -1.606677   2.324200   3.830494
C   -1.578937   0.144376   7.220562
O   -1.347038   -0.170186   6.067851
C   -1.480077   -0.782408   8.361709
C   -1.697347   -0.288457   9.643957
C   -1.592928   -1.130085   10.739054
C   -1.279167   -2.455669   10.509426
N   -1.164181   -3.367214   11.675055
O   -0.926417   -4.532041   11.442667
O   -1.314125   -2.880578   12.773382
C   -1.067440   -2.977930   9.244272
C   -1.167400   -2.125935   8.161244
H   -1.896762   1.168678   7.466208
H   -1.939853   0.757909   9.785715
H   -1.748202   -0.782715   11.749367
H   -0.834163   -4.026387   9.133075
H   -1.015323   -2.492788   7.155074

