%chk=knarr_saddle.chk
# B3LYP/6-31G(d) Opt=(TS,CalcAll,MaxStep=5) Freq SCRF=(IEFPCM,Solvent=Acetone) Temperature=303.15

Converted from XYZ file

1 1
C   -2.724558   0.314553   -2.708270
C   -1.887528   0.490400   -1.473651
C   -0.543174   0.424561   -1.583016
N   -2.581777   0.730608   -0.316038
C   -3.986970   1.150747   -0.290713
C   -4.161899   1.682872   1.125835
C   -3.222709   0.789538   1.932745
C   -2.000282   0.678429   1.015792
C   -0.967965   1.801641   1.247363
N   0.302773   1.237035   1.778912
H   0.493024   0.348540   1.273297
C   1.496786   2.125109   1.641161
C   2.533385   1.528638   2.598904
C   1.740923   0.585252   3.536306
C   0.275456   0.856735   3.224295
H   -2.135260   -0.164093   -3.486233
H   -3.035174   1.291483   -3.081786
H   -3.619785   -0.277573   -2.524076
H   -0.105149   0.181917   -2.538349
H   0.143845   0.698360   -0.800685
H   -4.173299   1.911552   -1.047089
H   -4.658353   0.307889   -0.478322
H   -3.829966   2.722886   1.176652
H   -5.194250   1.643115   1.463972
H   -2.974539   1.188435   2.916726
H   -3.668270   -0.196505   2.074846
H   -1.495685   -0.281092   1.157258
H   -1.315271   2.549299   1.961481
H   -0.738218   2.300967   0.308724
H   1.185440   3.127426   1.932807
H   1.798487   2.145347   0.595268
H   3.035887   2.322078   3.146301
H   3.296013   0.976369   2.053969
H   1.976613   -0.455327   3.319408
H   1.955354   0.762600   4.586882
H   -0.381621   -0.000100   3.356574
H   -0.121300   1.711634   3.772672
C   0.320635   -1.745421   -0.343318
O   0.551123   -1.268694   0.758282
C   1.374523   -1.971143   -1.343137
C   2.580728   -1.275608   -1.284016
C   3.644870   -1.684019   -2.061191
C   3.473117   -2.799069   -2.867286
N   4.649857   -3.329831   -3.595288
O   5.691789   -2.722961   -3.477245
O   4.489232   -4.342285   -4.239087
C   2.269056   -3.459805   -2.998306
C   1.198470   -3.016051   -2.238998
H   -0.673940   -2.144816   -0.585375
H   2.684168   -0.430591   -0.614741
H   4.604642   -1.190180   -2.030218
H   2.191885   -4.316278   -3.649846
H   0.238862   -3.514573   -2.300151

