%chk=product.chk
#p opt freq B3LYP/6-31G(d) scrf=(iefpcm,solvent=acetone) Temperature=303.15

Converted from XYZ file

1 1
C   -4.971937   -3.515940   -6.803277
C   -4.063071   -3.443200   -5.624188
C   -2.619463   -3.774284   -5.807234
N   -4.528635   -3.101036   -4.477337
C   -5.949445   -2.748138   -4.233541
C   -5.947428   -2.211204   -2.809920
C   -4.842013   -3.030300   -2.148834
C   -3.739497   -3.057206   -3.203579
C   -2.775619   -1.853180   -3.168637
N   -1.405568   -2.306832   -3.069610
H   -2.841913   -6.738164   -4.596522
C   -0.416824   -1.249083   -3.285798
C   0.895428   -1.903615   -2.857590
C   0.474075   -2.943711   -1.793162
C   -1.055237   -2.860367   -1.759355
H   -4.487693   -4.035600   -7.625596
H   -5.212052   -2.503144   -7.139972
H   -5.909047   -4.015591   -6.560103
H   -2.287308   -3.345156   -6.755036
H   -2.004358   -3.369004   -5.003483
H   -6.286627   -2.033240   -4.981214
H   -6.545876   -3.658539   -4.319980
H   -5.695803   -1.149124   -2.807499
H   -6.917566   -2.329130   -2.333672
H   -4.486917   -2.603287   -1.213500
H   -5.191887   -4.044618   -1.948703
H   -3.160999   -3.976228   -3.165544
H   -3.044508   -1.188488   -2.331024
H   -2.877022   -1.263055   -4.082974
H   -0.639795   -0.373623   -2.655875
H   -0.422413   -0.925081   -4.327965
H   1.602575   -1.172626   -2.471506
H   1.364030   -2.395773   -3.709415
H   0.802304   -3.944356   -2.073961
H   0.898577   -2.731877   -0.814141
H   -1.534265   -3.827759   -1.593525
H   -1.388632   -2.179962   -0.958747
C   -2.423787   -5.298165   -5.865270
O   -3.055378   -5.802691   -4.691624
C   -0.955328   -5.643809   -5.927976
C   -0.116151   -5.292047   -4.871373
C   1.228214   -5.611689   -4.913189
C   1.712891   -6.277888   -6.025656
N   3.153025   -6.618549   -6.076107
O   3.824953   -6.323470   -5.111223
O   3.559280   -7.165513   -7.077199
C   0.908867   -6.638034   -7.086949
C   -0.440104   -6.316866   -7.027881
H   -2.922359   -5.699951   -6.754232
H   -0.515577   -4.760771   -4.015464
H   1.903451   -5.356811   -4.109395
H   1.335270   -7.162190   -7.929441
H   -1.091888   -6.599786   -7.845827

