%chk=reactant.chk
#p opt freq B3LYP/6-31G(d) scrf=(iefpcm,solvent=acetone) Temperature=303.15

Converted from XYZ file

1 1
C   -4.806155   -2.725978   -7.193859
C   -3.976027   -2.996934   -5.972476
C   -2.738436   -3.509149   -6.074123
N   -4.561104   -2.640684   -4.768435
C   -6.005797   -2.471039   -4.605128
C   -6.127282   -2.071505   -3.144274
C   -5.053562   -2.932067   -2.478614
C   -3.912462   -2.953494   -3.509012
C   -2.806400   -1.921034   -3.255918
N   -1.683681   -2.470795   -2.445759
H   -1.380498   -3.360087   -2.876743
C   -0.481145   -1.574517   -2.403949
C   0.346422   -2.071362   -1.212246
C   -0.584353   -3.030646   -0.437066
C   -1.969942   -2.769546   -1.009007
H   -4.252935   -2.998901   -8.087975
H   -5.068499   -1.668566   -7.258745
H   -5.736111   -3.296352   -7.177199
H   -2.330460   -3.725475   -7.049735
H   -2.104307   -3.710715   -5.224432
H   -6.388275   -1.710395   -5.282642
H   -6.545319   -3.406006   -4.798982
H   -5.895827   -1.010263   -3.030659
H   -7.121647   -2.246147   -2.739398
H   -4.742867   -2.546676   -1.507824
H   -5.429131   -3.945584   -2.328019
H   -3.450154   -3.951151   -3.557895
H   -3.187383   -1.038849   -2.738519
H   -2.380346   -1.612728   -4.209983
H   -0.850887   -0.560247   -2.258616
H   0.022809   -1.630972   -3.365635
H   0.657186   -1.228861   -0.598793
H   1.245210   -2.584843   -1.545194
H   -0.301184   -4.066519   -0.620598
H   -0.562076   -2.866246   0.637299
H   -2.657772   -3.608426   -0.937344
H   -2.435250   -1.879331   -0.582990
C   -0.605265   -5.795036   -4.191765
O   -0.510738   -4.741352   -3.587889
C   0.176762   -6.135014   -5.383786
C   1.104279   -5.232842   -5.905814
C   1.823884   -5.566907   -7.034953
C   1.591032   -6.802796   -7.617528
N   2.363151   -7.163974   -8.833712
O   3.153691   -6.345072   -9.246962
O   2.145484   -8.249344   -9.323321
C   0.677897   -7.714534   -7.126557
C   -0.036297   -7.368869   -5.991228
H   -1.319907   -6.562779   -3.853235
H   1.252479   -4.279247   -5.417969
H   2.552505   -4.899936   -7.470641
H   0.542094   -8.661588   -7.626468
H   -0.762452   -8.058378   -5.578507

