%chk=knarr_saddle.chk
# B3LYP/6-31G(d) Opt=(TS,CalcAll,MaxStep=5) Freq SCRF=(IEFPCM,Solvent=Acetone) Temperature=303.15

Converted from XYZ file

1 1
C   -2.015076   -1.243804   -2.596095
C   -1.410065   -1.334234   -1.215396
C   -0.068623   -1.416698   -1.132761
N   -2.325262   -1.277880   -0.187153
C   -3.750566   -1.556779   -0.455702
C   -4.377600   -1.864137   0.909781
C   -3.183526   -2.073426   1.829811
C   -2.144871   -1.110505   1.260763
C   -0.792618   -1.385370   1.901093
N   0.099757   -0.188609   1.972800
H   0.124940   0.282137   1.049869
C   -0.355560   0.875695   2.937617
C   0.906131   1.672181   3.292444
C   2.094258   0.851751   2.745353
C   1.503367   -0.502806   2.382343
H   -2.664025   -0.369167   -2.676504
H   -1.226595   -1.166255   -3.340246
H   -2.616891   -2.117523   -2.843462
H   0.497334   -1.508557   -0.221806
H   0.505991   -1.444358   -2.044844
H   -4.246250   -0.710462   -0.935944
H   -3.834349   -2.413826   -1.121561
H   -4.974931   -1.022953   1.260635
H   -5.028811   -2.733851   0.863563
H   -2.794206   -3.091998   1.746075
H   -3.404095   -1.873045   2.878090
H   -2.443691   -0.086690   1.529786
H   -0.958468   -1.687885   2.935758
H   -0.262474   -2.190644   1.400609
H   -1.122696   1.472249   2.454333
H   -0.780726   0.366532   3.801807
H   0.969003   1.801606   4.370768
H   0.881304   2.663529   2.845937
H   2.514645   1.332055   1.861768
H   2.894840   0.743208   3.473023
H   2.006309   -1.013881   1.563538
H   1.447160   -1.178089   3.236851
C   -0.097090   1.470485   -1.242722
O   -0.345258   1.542475   -0.055325
C   1.269380   1.470364   -1.815114
C   1.466689   2.334247   -2.883011
C   2.735269   2.512974   -3.409229
C   3.766663   1.762681   -2.886509
N   5.123887   1.936741   -3.454924
O   5.246030   2.747161   -4.345422
O   6.011928   1.259606   -2.985486
C   3.590417   0.850895   -1.858398
C   2.331767   0.727792   -1.301987
H   -0.915809   1.507475   -1.980552
H   0.629289   2.892176   -3.282370
H   2.929116   3.213856   -4.205861
H   4.429205   0.261903   -1.517312
H   2.165453   0.011658   -0.508720

