%chk=product.chk
#p opt freq B3LYP/6-31G(d) scrf=(iefpcm,solvent=acetone) Temperature=303.15

Converted from XYZ file

1 1
C   3.404489   -0.528232   -4.529669
C   4.036149   -0.307051   -3.190983
C   5.445256   0.176255   -3.190736
N   3.321625   -0.488102   -2.132243
C   1.885218   -0.878861   -2.241323
C   1.320040   -0.688088   -0.844904
C   2.520545   -0.979693   0.036593
C   3.673776   -0.282476   -0.673298
C   5.041395   -0.780416   -0.200074
N   6.021328   0.282760   -0.042475
H   5.516204   1.779706   -1.274145
C   5.788010   1.133476   1.136531
C   7.090674   1.922131   1.258774
C   8.166221   0.975175   0.677390
C   7.376727   -0.237910   0.181337
H   2.626865   0.219359   -4.706871
H   4.142546   -0.449426   -5.321389
H   2.928216   -1.508045   -4.583862
H   5.995976   -0.149407   -2.316010
H   5.941641   -0.203344   -4.083101
H   1.394501   -0.268511   -2.994272
H   1.843971   -1.923648   -2.555484
H   0.987295   0.341613   -0.708403
H   0.474079   -1.346738   -0.663903
H   2.712785   -2.055162   0.087284
H   2.417524   -0.607908   1.054196
H   3.598235   0.794994   -0.525936
H   4.886864   -1.292693   0.761222
H   5.426432   -1.539846   -0.885079
H   4.912555   1.771796   1.003528
H   5.621846   0.505975   2.025178
H   7.290476   2.203611   2.290248
H   7.031308   2.840191   0.674478
H   8.698138   1.456894   -0.141816
H   8.906298   0.681199   1.418128
H   7.774795   -0.683332   -0.733514
H   7.353713   -1.027020   0.947158
C   5.454775   1.726576   -3.199072
O   4.954415   2.190377   -1.962298
C   6.828460   2.288615   -3.500834
C   6.922268   3.469731   -4.228831
C   8.154004   4.058227   -4.465719
C   9.281983   3.443699   -3.958315
N   10.603410   4.064617   -4.199675
O   10.627747   5.077181   -4.863599
O   11.569701   3.516972   -3.713481
C   9.225827   2.269587   -3.232602
C   7.986412   1.694259   -3.008591
H   4.762755   2.093429   -3.961078
H   6.023890   3.941648   -4.607229
H   8.251410   4.974533   -5.028731
H   10.138161   1.826255   -2.861290
H   7.935582   0.774883   -2.439723

