%chk=reactant.chk
#p opt freq B3LYP/6-31G(d) scrf=(iefpcm,solvent=acetone) Temperature=303.15

Converted from XYZ file

1 1
C   4.236881   0.776468   -3.777528
C   4.488505   -0.107730   -2.584210
C   5.533175   -0.941158   -2.572462
N   3.547379   0.078789   -1.539945
C   2.163405   -0.277651   -1.924338
C   2.052843   -1.790008   -1.634437
C   3.096682   -2.052500   -0.522513
C   3.662686   -0.646802   -0.268382
C   4.999818   -0.558397   0.441641
N   5.557563   0.822065   0.367454
H   5.558311   1.113226   -0.618006
C   4.768394   1.872044   1.131721
C   5.765893   2.503779   2.099056
C   7.116830   2.298765   1.414772
C   6.982778   0.897622   0.850771
H   3.882392   1.759048   -3.465811
H   5.146416   0.883081   -4.366303
H   3.481694   0.342601   -4.434226
H   5.698638   -1.693929   -1.819615
H   6.218840   -0.937532   -3.408255
H   1.478388   0.292277   -1.294679
H   1.959109   -0.019125   -2.957781
H   1.045016   -2.065658   -1.330419
H   2.295237   -2.365078   -2.526892
H   3.871991   -2.738364   -0.863366
H   2.656103   -2.474137   0.380046
H   2.937709   -0.137946   0.376628
H   4.871204   -0.799151   1.498002
H   5.754080   -1.226679   0.039090
H   4.395976   2.578251   0.395195
H   3.928012   1.390141   1.623007
H   5.746266   1.987061   3.059883
H   5.532847   3.550674   2.278615
H   7.256686   3.018536   0.608967
H   7.959438   2.376047   2.098209
H   7.642428   0.662066   0.018602
H   7.101494   0.143318   1.628667
C   6.310710   3.308326   -2.677824
O   5.996554   2.737882   -1.653493
C   7.311438   2.808169   -3.635178
C   7.585854   3.556613   -4.774513
C   8.525106   3.106982   -5.689821
C   9.164687   1.912397   -5.427537
N   10.177153   1.425248   -6.397778
O   10.356858   2.093909   -7.390141
O   10.749734   0.393435   -6.123906
C   8.910475   1.143839   -4.302301
C   7.971284   1.602234   -3.401077
H   5.836612   4.269260   -2.939073
H   7.067174   4.491747   -4.947011
H   8.765892   3.659191   -6.585598
H   9.445727   0.217000   -4.157681
H   7.728147   1.029564   -2.516745

