%chk=knarr_saddle.chk
# B3LYP/6-31G(d) Opt=(TS,CalcAll,MaxStep=5) Freq SCRF=(IEFPCM,Solvent=Acetone) Temperature=303.15

Converted from XYZ file

1 1
C   -0.724933   -0.470709   -2.956822
C   -0.937748   0.148939   -1.609074
C   0.095448   0.984480   -1.134468
N   -2.011515   -0.197453   -0.911062
C   -3.090218   -1.035820   -1.492216
C   -4.366546   -0.413846   -0.950714
C   -3.955946   0.016345   0.448580
C   -2.525565   0.544202   0.279128
C   -1.710557   0.476301   1.579900
N   -0.947783   -0.755793   1.818971
H   -0.099818   -0.808332   1.091015
C   -1.676952   -2.043069   1.870998
C   -0.615420   -3.012155   2.381259
C   0.286920   -2.156925   3.300325
C   -0.192938   -0.716175   3.109176
H   -1.485871   -0.117145   -3.656394
H   0.249838   -0.182236   -3.342948
H   -0.785007   -1.559173   -2.905269
H   -0.070884   1.579476   -0.243977
H   0.606426   1.528024   -1.920956
H   -3.040316   -1.013553   -2.575015
H   -2.973532   -2.072041   -1.166419
H   -5.198315   -1.113930   -0.959814
H   -4.643379   0.451087   -1.555606
H   -4.604601   0.778058   0.877056
H   -3.968920   -0.841039   1.123300
H   -2.566165   1.600453   -0.003579
H   -2.410636   0.601651   2.408432
H   -0.993985   1.295826   1.635879
H   -2.502280   -1.930340   2.577169
H   -2.072706   -2.299540   0.892077
H   -0.038774   -3.406433   1.544946
H   -1.070530   -3.853237   2.897842
H   1.329740   -2.255749   3.007926
H   0.200699   -2.444365   4.345002
H   -0.882360   -0.391444   3.889657
H   0.616662   0.000947   3.003596
C   1.462227   -0.229386   -0.591852
O   1.197586   -0.655184   0.598005
C   2.660861   0.665014   -0.780408
C   3.516913   0.470564   -1.858345
C   4.540032   1.374468   -2.112838
C   4.664318   2.472771   -1.286864
N   5.680806   3.498679   -1.607940
O   6.421889   3.278991   -2.541377
O   5.692332   4.499518   -0.923070
C   3.853336   2.666084   -0.181679
C   2.862630   1.739265   0.078332
H   1.399573   -0.958892   -1.412708
H   3.396029   -0.389678   -2.507578
H   5.220957   1.257775   -2.943002
H   3.993878   3.539947   0.435153
H   2.215098   1.854775   0.938273

