%chk=product.chk
#p opt freq B3LYP/6-31G(d) scrf=(iefpcm,solvent=acetone) Temperature=303.15

Converted from XYZ file

1 1
C   2.457514   -0.391621   -2.480494
C   1.831577   0.609481   -1.565209
C   2.574033   1.881299   -1.341283
N   0.657139   0.378372   -1.087756
C   -0.177931   -0.767359   -1.536529
C   -1.596854   -0.260004   -1.342202
C   -1.485456   0.556721   -0.063234
C   -0.132198   1.268213   -0.167605
C   0.515073   1.563742   1.196288
N   1.394800   0.540510   1.730456
H   3.014920   0.900039   0.920602
C   0.803029   -0.770037   2.022378
C   1.870621   -1.462191   2.872019
C   2.615031   -0.302280   3.571783
C   1.929815   0.955962   3.045221
H   1.950608   -0.362766   -3.449245
H   3.503209   -0.155979   -2.649619
H   2.374595   -1.404409   -2.087943
H   1.989013   2.628820   -0.810192
H   2.775460   2.264750   -2.348339
H   0.058026   -1.015057   -2.566522
H   0.037929   -1.632648   -0.908212
H   -2.311096   -1.076733   -1.271305
H   -1.884831   0.370319   -2.185247
H   -2.289120   1.280001   0.057995
H   -1.495947   -0.098321   0.807775
H   -0.264934   2.213550   -0.697765
H   -0.321331   1.769681   1.882891
H   1.100475   2.483206   1.143786
H   -0.128381   -0.647603   2.595081
H   0.570761   -1.319754   1.111285
H   2.551331   -2.028890   2.237631
H   1.422449   -2.161501   3.574562
H   3.670405   -0.300836   3.304832
H   2.550918   -0.361099   4.655904
H   1.098256   1.252546   3.699188
H   2.598796   1.807651   2.931411
C   3.944598   1.713970   -0.629060
O   3.782507   1.486127   0.740495
C   4.753853   2.974357   -0.836420
C   5.646406   3.057670   -1.898250
C   6.360734   4.222138   -2.127969
C   6.160688   5.289943   -1.274860
N   6.920908   6.537452   -1.508011
O   7.696321   6.549199   -2.439485
O   6.714086   7.462885   -0.753160
C   5.285547   5.234316   -0.206537
C   4.579975   4.062432   0.010369
H   4.487345   0.885381   -1.100395
H   5.803896   2.201714   -2.544722
H   7.068360   4.308641   -2.938932
H   5.173503   6.094743   0.436094
H   3.908826   3.981889   0.854869

