%chk=reactant.chk
#p opt freq B3LYP/6-31G(d) scrf=(iefpcm,solvent=acetone) Temperature=303.15

Converted from XYZ file

1 1
C   1.930454   1.582686   -2.528760
C   1.285440   2.176662   -1.307416
C   1.714782   3.339867   -0.800070
N   0.263309   1.413499   -0.737073
C   -0.610441   0.562956   -1.572118
C   -2.019035   0.862719   -1.070496
C   -1.794510   1.163227   0.407311
C   -0.481584   1.950384   0.397566
C   0.321480   1.878354   1.706220
N   1.286638   0.745560   1.732077
H   1.817599   0.768895   0.850108
C   0.698580   -0.626783   1.853709
C   1.885356   -1.485097   2.253110
C   2.709880   -0.581865   3.187095
C   2.278114   0.854095   2.861146
H   1.315266   1.738515   -3.416180
H   2.890499   2.061507   -2.710517
H   2.080429   0.507448   -2.416376
H   1.243220   3.845335   0.029312
H   2.537959   3.852032   -1.275559
H   -0.494749   0.795656   -2.627180
H   -0.359462   -0.493953   -1.437639
H   -2.709563   0.039686   -1.242731
H   -2.412421   1.746413   -1.575629
H   -2.598923   1.738549   0.862708
H   -1.693639   0.235143   0.973310
H   -0.709942   3.011006   0.230734
H   -0.342619   1.765891   2.564284
H   0.916921   2.776530   1.854320
H   -0.060177   -0.581720   2.636327
H   0.236155   -0.903330   0.910801
H   2.462176   -1.746944   1.368319
H   1.562823   -2.404585   2.735906
H   3.776534   -0.718594   3.029106
H   2.499490   -0.801185   4.232251
H   1.764264   1.330802   3.694170
H   3.087832   1.497784   2.527739
C   4.492438   0.249840   -0.681694
O   3.570943   0.220408   0.108467
C   5.329476   1.430618   -0.946766
C   6.348424   1.330991   -1.888976
C   7.145536   2.429819   -2.168013
C   6.890161   3.603185   -1.486853
N   7.736319   4.788013   -1.778441
O   8.621528   4.647614   -2.591620
O   7.477700   5.809371   -1.180683
C   5.883248   3.732292   -0.543578
C   5.098002   2.629550   -0.273681
H   4.748912   -0.653142   -1.262054
H   6.519964   0.394023   -2.404781
H   7.946369   2.392091   -2.890977
H   5.736179   4.680312   -0.048109
H   4.291922   2.686499   0.444289

