%chk=knarr_saddle.chk
# B3LYP/6-31G(d) Opt=(TS,CalcAll,MaxStep=5) Freq SCRF=(IEFPCM,Solvent=Acetone) Temperature=303.15

Converted from XYZ file

1 1
C   2.412928   0.869855   -1.473442
C   1.956617   0.101160   -0.277069
C   1.820858   0.781628   0.948607
N   1.494733   -1.124139   -0.405036
C   1.275693   -2.022437   0.754372
C   1.198528   -3.431595   0.148819
C   1.708032   -3.265896   -1.289211
C   1.245744   -1.855095   -1.654096
C   -0.248063   -1.891189   -1.985186
N   -0.887867   -0.576236   -2.189214
H   -0.659257   0.046166   -1.305897
C   -2.380523   -0.676788   -2.166777
C   -2.835129   0.607212   -2.828187
C   -1.809732   0.822270   -3.947935
C   -0.536384   0.107116   -3.474083
H   1.550333   1.314985   -1.970635
H   3.056983   1.686945   -1.161647
H   2.952293   0.255976   -2.191204
H   2.456157   1.648039   1.072553
H   1.728248   0.194289   1.850188
H   0.374299   -1.736692   1.295769
H   2.130775   -1.915137   1.420100
H   1.797191   -4.139517   0.715614
H   0.175177   -3.804754   0.159211
H   2.796957   -3.308378   -1.322079
H   1.323677   -4.024019   -1.969138
H   1.813077   -1.418828   -2.472716
H   -0.786677   -2.381375   -1.173868
H   -0.391295   -2.475511   -2.894536
H   -2.696582   -0.788567   -1.132980
H   -2.666860   -1.558728   -2.738789
H   -3.850767   0.524193   -3.207006
H   -2.803355   1.423701   -2.108317
H   -2.155750   0.383689   -4.880765
H   -1.624683   1.876061   -4.138859
H   0.286656   0.794276   -3.314375
H   -0.202710   -0.652722   -4.176634
C   0.052399   1.447064   0.684443
O   -0.683503   0.603033   0.033032
C   -0.305388   1.700851   2.122005
C   0.214082   2.800973   2.794927
C   -0.018563   2.958871   4.150164
C   -0.778606   2.008022   4.804886
N   -0.971672   2.127400   6.265741
O   -0.456589   3.073822   6.819994
O   -1.619003   1.260450   6.813046
C   -1.351907   0.937135   4.147121
C   -1.114664   0.790845   2.791661
H   0.337127   2.363544   0.152020
H   0.810186   3.534759   2.263277
H   0.380869   3.792774   4.704031
H   -1.961233   0.239564   4.699450
H   -1.552859   -0.029070   2.238647

