%chk=product.chk
#p opt freq B3LYP/6-31G(d) scrf=(iefpcm,solvent=acetone) Temperature=303.15

Converted from XYZ file

1 1
C   0.889995   1.827025   -0.525082
C   0.522107   0.936244   0.610941
C   0.289785   1.590681   1.924915
N   0.287809   -0.320956   0.468938
C   0.042171   -1.262032   1.601445
C   0.071596   -2.659617   0.971130
C   0.616979   -2.446486   -0.447400
C   0.123522   -1.051899   -0.810421
C   -1.369102   -1.063746   -1.167220
N   -1.957199   0.254714   -1.307550
H   -2.001543   1.080829   0.490105
C   -3.434316   0.209375   -1.285207
C   -3.842953   1.604747   -1.758019
C   -2.647169   2.084462   -2.614811
C   -1.681177   0.902125   -2.599004
H   -0.001126   2.362466   -0.862121
H   1.603118   2.570163   -0.171659
H   1.317090   1.301940   -1.372662
H   1.008785   2.391025   2.095382
H   0.329486   0.895649   2.758810
H   -0.909359   -1.011126   2.066820
H   0.840302   -1.124662   2.327988
H   0.695510   -3.334986   1.550586
H   -0.928555   -3.087519   0.945011
H   1.707088   -2.466404   -0.453705
H   0.263302   -3.196387   -1.152660
H   0.710091   -0.577429   -1.591775
H   -1.912589   -1.591124   -0.380202
H   -1.480593   -1.657676   -2.085922
H   -3.796360   -0.038818   -0.286876
H   -3.793213   -0.560204   -1.982295
H   -4.772064   1.572844   -2.322310
H   -4.001305   2.265437   -0.906510
H   -2.934041   2.350059   -3.629618
H   -2.183155   2.966243   -2.170477
H   -0.635558   1.191456   -2.696933
H   -1.910442   0.202522   -3.416239
C   -1.155736   2.198888   1.869078
O   -2.080455   1.222658   1.456320
C   -1.514408   2.705685   3.243389
C   -1.111541   3.977124   3.635807
C   -1.387701   4.438550   4.912189
C   -2.069149   3.603738   5.776755
N   -2.369964   4.086057   7.142929
O   -2.008701   5.207247   7.427489
O   -2.954997   3.325521   7.883311
C   -2.487838   2.338651   5.411976
C   -2.205775   1.890384   4.131935
H   -1.146156   3.044459   1.171617
H   -0.590364   4.623893   2.939101
H   -1.093223   5.424533   5.239282
H   -3.026237   1.729292   6.122443
H   -2.543063   0.913304   3.815007

