%chk=reactant.chk
#p opt freq B3LYP/6-31G(d) scrf=(iefpcm,solvent=acetone) Temperature=303.15

Converted from XYZ file

1 1
C   1.352261   1.771659   -0.583021
C   0.872150   1.199913   0.720852
C   1.207009   1.787568   1.877062
N   0.060980   0.060184   0.674062
C   0.033096   -0.793729   1.878364
C   -0.156390   -2.224200   1.368253
C   0.381724   -2.163626   -0.062539
C   -0.064689   -0.774316   -0.522981
C   -1.526278   -0.853939   -0.975397
N   -2.153867   0.484031   -1.141706
H   -1.841570   1.064775   -0.348745
C   -3.664048   0.431469   -1.070982
C   -4.127908   1.509524   -2.030813
C   -3.117703   1.376830   -3.168229
C   -1.799910   1.214220   -2.423053
H   0.532050   1.979416   -1.271356
H   1.877120   2.705019   -0.399096
H   2.045411   1.096362   -1.088610
H   1.842732   2.660481   1.864442
H   0.898566   1.415366   2.842801
H   -0.749749   -0.481817   2.572444
H   0.990370   -0.694805   2.396558
H   0.378693   -2.941977   1.985649
H   -1.206928   -2.517962   1.380345
H   1.471331   -2.205922   -0.062952
H   0.013184   -2.965963   -0.701911
H   0.551724   -0.391707   -1.333527
H   -2.112707   -1.374281   -0.218062
H   -1.625549   -1.393426   -1.918543
H   -3.961416   0.571494   -0.035018
H   -3.968938   -0.558353   -1.410194
H   -5.156889   1.352137   -2.345108
H   -4.055739   2.491123   -1.560035
H   -3.334914   0.493400   -3.771287
H   -3.093273   2.239327   -3.830182
H   -1.399074   2.183102   -2.134845
H   -1.036764   0.651562   -2.955514
C   -1.543179   3.182968   1.549972
O   -2.116058   2.509330   0.714621
C   -1.704623   3.006994   3.002995
C   -1.012361   3.854501   3.860957
C   -1.122391   3.694585   5.232405
C   -1.930103   2.677651   5.703055
N   -2.043984   2.486592   7.170206
O   -1.419705   3.246509   7.876039
O   -2.751042   1.581226   7.555376
C   -2.638079   1.824368   4.872723
C   -2.521751   1.997429   3.507360
H   -0.870412   3.997050   1.239078
H   -0.380264   4.635103   3.454985
H   -0.598829   4.330294   5.930485
H   -3.258944   1.054085   5.304855
H   -3.060750   1.357298   2.821783

