%chk=knarr_saddle.chk
# B3LYP/6-31G(d) Opt=(TS,CalcAll,MaxStep=5) Freq SCRF=(IEFPCM,Solvent=Acetone) Temperature=303.15

Converted from XYZ file

1 1
C   -3.562056   0.634934   0.369194
C   -2.254804   0.856891   -0.332367
C   -1.677010   -0.161162   -1.017520
N   -1.667640   2.071287   -0.133058
C   -2.450296   3.229454   0.359492
C   -1.639305   4.454147   -0.058930
C   -0.855802   3.957316   -1.271553
C   -0.487374   2.523325   -0.875140
C   0.772066   2.556901   -0.006629
N   1.403583   1.247309   0.298716
H   0.692967   0.566524   0.679436
C   2.422206   1.361428   1.397211
C   3.343181   0.148217   1.232968
C   2.984213   -0.462385   -0.138064
C   2.137507   0.598957   -0.826426
H   -3.928063   -0.369076   0.170294
H   -3.437484   0.756011   1.449668
H   -4.321482   1.346520   0.047989
H   -2.239855   -1.056565   -1.220603
H   -0.727915   -0.044299   -1.513484
H   -2.605812   3.169119   1.436598
H   -3.428743   3.247004   -0.123453
H   -2.282247   5.298497   -0.293697
H   -0.966664   4.769879   0.739062
H   -1.495644   3.921119   -2.154054
H   0.011577   4.569910   -1.513442
H   -0.331994   1.901496   -1.756713
H   0.532209   3.013230   0.953397
H   1.542406   3.160656   -0.490463
H   1.888088   1.394644   2.343704
H   2.948542   2.304143   1.251109
H   3.190978   -0.572815   2.032001
H   4.382473   0.465710   1.274089
H   2.406775   -1.377454   -0.010663
H   3.860877   -0.706200   -0.733062
H   2.747009   1.370432   -1.300194
H   1.434713   0.203174   -1.554966
C   -0.902399   -1.231800   0.986001
O   -0.220153   -0.374245   1.547191
C   -0.312396   -2.475285   0.368917
C   -0.135566   -3.466058   1.331449
C   0.305040   -4.725827   0.977431
C   0.577146   -4.973347   -0.352543
N   0.992290   -6.336888   -0.743276
O   1.096283   -7.156075   0.142068
O   1.189543   -6.538623   -1.922364
C   0.448242   -4.003483   -1.326075
C   -0.006713   -2.743343   -0.961730
H   -1.960975   -1.326168   1.256228
H   -0.367087   -3.241730   2.364747
H   0.418692   -5.508161   1.709536
H   0.677420   -4.245722   -2.353401
H   -0.140548   -2.001520   -1.734626

