%chk=product.chk
#p opt freq B3LYP/6-31G(d) scrf=(iefpcm,solvent=acetone) Temperature=303.15

Converted from XYZ file

1 1
C   -4.570885   -0.502048   1.118407
C   -3.137967   -0.528043   0.710800
C   -2.600016   -1.808256   0.174817
N   -2.411024   0.523399   0.866998
C   -2.958071   1.800255   1.406103
C   -1.815103   2.804446   1.284233
C   -0.926476   2.195178   0.200566
C   -0.967930   0.701505   0.515437
C   -0.057892   0.352741   1.697900
N   0.178547   -1.066233   1.895430
H   -1.387071   -1.916880   2.383360
C   0.889415   -1.317630   3.164934
C   1.355542   -2.763306   3.037796
C   1.566643   -2.964272   1.521422
C   1.065485   -1.664847   0.882321
H   -5.095928   -1.370204   0.730329
H   -4.622509   -0.526631   2.210394
H   -5.075563   0.400689   0.776958
H   -3.215764   -2.106490   -0.677684
H   -1.569542   -1.715052   -0.153168
H   -3.306872   1.641866   2.425522
H   -3.808182   2.089534   0.789461
H   -2.185816   3.791690   1.020703
H   -1.274031   2.895695   2.225057
H   -1.349371   2.375845   -0.788959
H   0.089728   2.582240   0.207645
H   -0.730496   0.094532   -0.353997
H   -0.491437   0.756303   2.616280
H   0.894862   0.879844   1.536165
H   0.226076   -1.141905   4.013072
H   1.747560   -0.636145   3.253752
H   0.586454   -3.440914   3.407723
H   2.259006   -2.943289   3.616116
H   0.997417   -3.819229   1.160026
H   2.610877   -3.137223   1.268857
H   1.903153   -0.981545   0.680032
H   0.544489   -1.836859   -0.061293
C   -2.688983   -2.856900   1.308750
O   -2.306100   -2.249303   2.524541
C   -1.876432   -4.102715   1.008952
C   -1.503931   -4.912645   2.079879
C   -0.755462   -6.057451   1.870540
C   -0.391889   -6.380643   0.575899
N   0.427408   -7.590789   0.344290
O   0.763441   -8.227659   1.318708
O   0.710568   -7.857262   -0.803706
C   -0.760746   -5.611907   -0.508926
C   -1.509016   -4.466029   -0.282385
H   -3.734197   -3.148976   1.438622
H   -1.795276   -4.631962   3.082904
H   -0.450705   -6.695629   2.686888
H   -0.461011   -5.909357   -1.502873
H   -1.797650   -3.865083   -1.135065

