%chk=reactant.chk
#p opt freq B3LYP/6-31G(d) scrf=(iefpcm,solvent=acetone) Temperature=303.15

Converted from XYZ file

1 1
C   -3.571826   -2.126553   1.238647
C   -2.567815   -1.361883   0.420663
C   -1.977060   -1.931828   -0.635110
N   -2.325809   -0.060065   0.893906
C   -3.511810   0.711091   1.339614
C   -3.080613   2.166100   1.238838
C   -2.144598   2.152282   0.031782
C   -1.388754   0.831134   0.203412
C   -0.161695   1.071783   1.081832
N   0.484397   -0.190477   1.534984
H   -0.262497   -0.812419   1.871872
C   1.456557   0.008790   2.688221
C   2.766710   -0.632984   2.241370
C   2.326447   -1.668912   1.209077
C   1.230784   -0.935920   0.457547
H   -3.576200   -3.174528   0.948251
H   -3.345430   -2.046546   2.303691
H   -4.580325   -1.737372   1.092929
H   -2.222432   -2.953352   -0.885851
H   -1.303758   -1.419626   -1.306115
H   -3.812284   0.425442   2.346387
H   -4.353906   0.525001   0.665369
H   -3.929194   2.834262   1.109559
H   -2.553321   2.478228   2.142360
H   -2.720123   2.120864   -0.893743
H   -1.480141   3.015244   -0.018278
H   -1.086367   0.425745   -0.760893
H   -0.465351   1.604248   1.982931
H   0.594878   1.662649   0.563467
H   1.022671   -0.490294   3.550484
H   1.538266   1.073230   2.890018
H   3.302390   -1.066100   3.082696
H   3.417185   0.109445   1.777112
H   1.917476   -2.553061   1.700097
H   3.129544   -1.981791   0.545382
H   1.643760   -0.192136   -0.224959
H   0.528300   -1.570326   -0.074872
C   -1.064698   -3.433775   3.322722
O   -0.496018   -2.417312   2.979312
C   -1.249237   -4.613234   2.461837
C   -2.000356   -5.683237   2.937321
C   -2.228784   -6.784565   2.127143
C   -1.684464   -6.778904   0.858176
N   -1.938288   -7.944639   -0.025726
O   -2.614877   -8.841419   0.424108
O   -1.453062   -7.909789   -1.135380
C   -0.918033   -5.735642   0.363884
C   -0.703226   -4.643183   1.179417
H   -1.491190   -3.510164   4.337076
H   -2.414069   -5.652593   3.938007
H   -2.812223   -7.630917   2.456864
H   -0.515361   -5.796985   -0.636374
H   -0.126835   -3.798550   0.829480

